&CONTROL
    restart_mode = 'restart'
    calculation = 'relax'
    prefix = 'ns'
    pseudo_dir = '/home/tomas.rojas_s/pseudo/'
    outdir = '/scratch/global/tomas.rojas_s/ns/axial_extraction/step_3/out'
    nstep = 200
    etot_conv_thr = 1.0D-4
    forc_conv_thr = 1.0D-3
/
&SYSTEM
    ibrav = 0
    nat = 197
    ntyp = 3
    ecutwfc = 45.0
    ecutrho = 360.0
    occupations = 'smearing'
    smearing = 'mp'
    degauss = 0.02
    vdw_corr = 'dft-d3'
/
&ELECTRONS
    conv_thr = 1.0D-8
    mixing_mode = 'local-TF'
    mixing_beta = 0.7
/
&IONS
/
&CELL
/

ATOMIC_SPECIES
C 12.011 C.pbe-n-kjpaw_psl.1.0.0.UPF
Al 26.9815385 Al.pbe-n-kjpaw_psl.1.0.0.UPF
Cl 35.45 Cl.pbe-n-kjpaw_psl.1.0.0.UPF

K_POINTS automatic
1 1 1 0 0 0

CELL_PARAMETERS angstrom
50.0 0.0 0.0
0.0 50.0 0.0
0.0 0.0 25.0
ATOMIC_POSITIONS angstrom
C                 30.8985677269      22.8327571057       9.7588759802 1 1 1
C                 30.0212360329      26.6530453946       8.8107029646 0 0 0
C                 27.0578303271      29.6743545915       8.8345959669 0 0 0
C                 22.9263832189      30.4366270367       8.8342371156 0 0 0
C                 19.1170949895      28.6327817539       8.8333767104 0 0 0
C                 17.0843898532      24.9425714516       8.8337663578 0 0 0
C                 17.5887773088      20.7571135460       8.8336293746 0 0 0
C                 20.2856327727      17.4977504215       8.8326575070 0 0 0
C                 24.2302699409      15.9523962864       8.8311496717 0 0 0
C                 28.4535641196      16.3623806894       8.8302142997 0 0 0
C                 32.0754400384      18.5658035462       8.8302267772 0 0 0
C                 34.2209335447      22.2038862261       8.8297912289 0 0 0
C                 34.0937464380      26.4295522581       8.8292196698 0 0 0
C                 32.5296204753      30.4003089760       8.8270653409 0 0 0
C                 30.8718585391      34.3351207914       8.8307891589 0 0 0
C                 29.3855198676      38.3698664414       8.8236131900 0 0 0
C                 30.8749481523      23.8918715847       9.0193138097 0 0 0
C                 29.2240523079      27.8397739570       8.8207990334 0 0 0
C                 25.7443761652      30.2199193993       8.8347887376 0 0 0
C                 21.5400984791      30.1045386606       8.8334276651 0 0 0
C                 18.1853100461      27.5542108410       8.8339359242 0 0 0
C                 16.9644181775      23.5227944629       8.8338118900 0 0 0
C                 18.2880079219      19.5158141734       8.8334716424 0 0 0
C                 21.5095030150      16.7684189204       8.8319934329 0 0 0
C                 25.6528385727      15.8758418866       8.8307367686 0 0 0
C                 29.7688107030      16.9087257366       8.8302399153 0 0 0
C                 33.0045655007      19.6444235098       8.8301189366 0 0 0
C                 34.4333149137      23.6118745408       8.8295996550 0 0 0
C                 33.6520552322      27.7832410993       8.8284059532 0 0 0
C                 31.9503396435      31.7016745042       8.8273852759 0 0 0
C                 30.3670919674      35.6686730547       8.8348515071 0 0 0
C                 28.8909843070      39.7332442584       8.7910506788 0 0 0
C                 31.2645530498      24.9498314464       9.9047733945 1 1 1
C                 28.8110446644      28.4403015051       9.9932653434 1 1 1
C                 25.0543857522      30.4454529290      10.0120079868 1 1 1
C                 20.8245268297      29.9086936334      10.0001007091 1 1 1
C                 17.7244484465      26.9788501523      10.0025981438 1 1 1
C                 16.9392959357      22.7898703005      10.0058720244 1 1 1
C                 18.6586960001      18.8817854574      10.0044602565 1 1 1
C                 22.1419731257      16.3978978064      10.0038497106 1 1 1
C                 26.3863173703      15.8322021448      10.0026592336 1 1 1
C                 30.4504713421      17.1871678054      10.0011624725 1 1 1
C                 33.5035932468      20.1934376805       9.9938969295 1 1 1
C                 34.5909698775      24.3322286653       9.9908790024 1 1 1
C                 33.4519676640      28.4694719962      10.0113548584 1 1 1
C                 31.6472861328      32.3654717219      10.0157780804 1 1 1
C                 30.1772905250      36.3774728261       9.9964103563 1 1 1
C                 28.5259763628      40.4603033470       9.9174204954 1 1 1
C                 30.7030845072      26.2315669718       9.9229756163 1 1 1
C                 27.7227903527      29.3418505212      10.0022103431 1 1 1
C                 23.6441978852      30.5618957548      10.0096865690 1 1 1
C                 19.6142018193      29.1745660234      10.0016731617 1 1 1
C                 17.1780950611      25.6729426105      10.0037993280 1 1 1
C                 17.2496114699      21.4089170627      10.0055292083 1 1 1
C                 19.6535987374      17.8747628760      10.0034698379 1 1 1
C                 23.4977960195      15.9917239629      10.0033874819 1 1 1
C                 27.7808674856      16.0744744015      10.0033983192 1 1 1
C                 31.6011319639      18.0106528484      10.0020934615 1 1 1
C                 34.1238333478      21.4669987069       9.9902831282 1 1 1
C                 34.4110179729      25.7394492130       9.9880970237 1 1 1
C                 32.8689689460      29.7577840475      10.0110925360 1 1 1
C                 31.1179951226      33.6750357296      10.0249361233 1 1 1
C                 29.6923439002      37.6790031704       9.9699088019 1 1 1
C                 28.1381853935      41.7133199886      10.5173474035 1 1 1
C                 31.2774660851      22.8502276321      11.1401542277 1 1 1
C                 30.3582512956      26.8909443806      11.1843668877 1 1 1
C                 27.0964442953      29.7179831560      11.2422878066 1 1 1
C                 22.8917659624      30.5095116080      11.2388349345 1 1 1
C                 19.0258227908      28.7056928055      11.2330799524 1 1 1
C                 16.9886233855      24.9510735459      11.2374377749 1 1 1
C                 17.4984244936      20.7046894723      11.2381600305 1 1 1
C                 20.2223001262      17.3915229585      11.2360756078 1 1 1
C                 24.2263080240      15.8305955782      11.2359000110 1 1 1
C                 28.5081730887      16.2489961513      11.2356495545 1 1 1
C                 32.1851260524      18.4850232920      11.2305947416 1 1 1
C                 34.4100321678      22.1632289376      11.2173826901 1 1 1
C                 34.2806911481      26.4575531043      11.2282428902 1 1 1
C                 32.5605650842      30.4214377200      11.2530089539 1 1 1
C                 30.8797815024      34.3900470552      11.2622447457 1 1 1
C                 29.3426415667      38.3376353427      11.1746559790 1 1 1
C                 31.6228100507      24.3374027959      11.1240706708 1 1 1
C                 29.4153370765      27.9542467756      11.2185309944 1 1 1
C                 25.7795882867      30.2491532511      11.2440065684 1 1 1
C                 21.5076235911      30.2002164916      11.2344133562 1 1 1
C                 18.1006949901      27.6275835570      11.2336675374 1 1 1
C                 16.8719718999      23.5352244282      11.2383224697 1 1 1
C                 18.1881771790      19.4624494690      11.2373478097 1 1 1
C                 21.4441744117      16.6658081532      11.2360497048 1 1 1
C                 25.6451486746      15.7518673833      11.2358624051 1 1 1
C                 29.8195569875      16.7957562415      11.2351653123 1 1 1
C                 33.1220640655      19.5535635387      11.2262486633 1 1 1
C                 34.6410683995      23.5700400184      11.2163463629 1 1 1
C                 33.7987448748      27.7939565351      11.2377283072 1 1 1
C                 31.9515380194      31.7004288348      11.2576313204 1 1 1
C                 30.4105806164      35.7221542131      11.2585782067 1 1 1
C                 28.7065885902      39.5520951929      11.0704655652 1 1 1
C                 31.1952521399      24.9031149153      12.3147914754 1 1 1
C                 28.8785711254      28.4316688408      12.4671719824 1 1 1
C                 25.0554097715      30.4233551473      12.4687983676 1 1 1
C                 20.8044193194      29.9483733308      12.4620681979 1 1 1
C                 17.6877909210      27.0111444999      12.4644610794 1 1 1
C                 16.8966340727      22.7944567469      12.4688675950 1 1 1
C                 18.6047999712      18.8479044085      12.4670356486 1 1 1
C                 22.1068555253      16.3310826509      12.4657617652 1 1 1
C                 26.3887696452      15.7543788604      12.4657483565 1 1 1
C                 30.4913147110      17.1224756756      12.4636358392 1 1 1
C                 33.5771549454      20.1485146720      12.4508524251 1 1 1
C                 34.6945235581      24.3030277143      12.4471352949 1 1 1
C                 33.5361133231      28.4701365628      12.4750531381 1 1 1
C                 31.6561131585      32.3805413646      12.4932578274 1 1 1
C                 30.1462381490      36.4467745076      12.4785389364 1 1 1
C                 28.1960862580      40.1583391645      12.1869346259 1 1 1
C                 30.6709654629      26.2038259713      12.4091230929 1 1 1
C                 27.7427771293      29.3265112651      12.4684514467 1 1 1
C                 23.6248522266      30.5631269889      12.4687400140 1 1 1
C                 19.5702594877      29.2078247132      12.4631303963 1 1 1
C                 17.1383704784      25.6794092680      12.4668497370 1 1 1
C                 17.2063187889      21.3872482100      12.4685927331 1 1 1
C                 19.6137724450      17.8181966613      12.4659451237 1 1 1
C                 23.4880353410      15.9170126875      12.4654501175 1 1 1
C                 27.8093530241      16.0018134647      12.4659945391 1 1 1
C                 31.6652167680      17.9601106781      12.4618221055 1 1 1
C                 34.2214692908      21.4399157254      12.4448275091 1 1 1
C                 34.5114990311      25.7332852433      12.4511214920 1 1 1
C                 32.8988912870      29.7573227478      12.4820140120 1 1 1
C                 31.1318594586      33.7166856618      12.4985136397 1 1 1
C                 29.5961762169      37.7747952316      12.4548150921 1 1 1
C                 27.9415017975      41.6199992194      11.8604513353 1 1 1
C                 30.8626921197      22.5963556466      12.4179592961 1 1 1
C                 30.1292259391      26.6346629657      13.6751962228 1 1 1
C                 27.0906394002      29.7168251589      13.6995493720 1 1 1
C                 22.8694166691      30.5786166617      13.7009420526 1 1 1
C                 18.9518452231      28.7699554213      13.6976546199 1 1 1
C                 16.9040915603      24.9606224230      13.7020565835 1 1 1
C                 17.4164349755      20.6592846219      13.7020473349 1 1 1
C                 20.1673926254      17.3005724425      13.6989266597 1 1 1
C                 24.2203988193      15.7227072750      13.6984356424 1 1 1
C                 28.5537620425      16.1517988473      13.6985219115 1 1 1
C                 32.2718552860      18.4213151143      13.6918261759 1 1 1
C                 34.5099547552      22.1380072869      13.6761823147 1 1 1
C                 34.3725268760      26.4609463658      13.6900756497 1 1 1
C                 32.5609897079      30.4192025411      13.7209192261 1 1 1
C                 30.8733489907      34.4372573482      13.7328909983 1 1 1
C                 29.2945896754      38.5658764499      13.6622625320 1 1 1
C                 30.9105243749      23.7793327464      13.2249024365 1 1 1
C                 29.3477829302      27.8168199903      13.7122278651 1 1 1
C                 25.7909613000      30.2794533139      13.7009802724 1 1 1
C                 21.4829052519      30.2802329542      13.6971371195 1 1 1
C                 18.0304493880      27.6888991039      13.6973444874 1 1 1
C                 16.7866731283      23.5447272263      13.7026581518 1 1 1
C                 18.1013452175      19.4144780101      13.7008678611 1 1 1
C                 21.3880973553      16.5725775590      13.6987754995 1 1 1
C                 25.6393862988      15.6441526136      13.6988043629 1 1 1
C                 29.8651782377      16.7005937772      13.6979698986 1 1 1
C                 33.2083615933      19.4909458141      13.6869396062 1 1 1
C                 34.7378286750      23.5403155275      13.6762235129 1 1 1
C                 33.8752793743      27.7871418057      13.7019970347 1 1 1
C                 31.9449279206      31.6917249280      13.7287946713 1 1 1
C                 30.4141396692      35.7773681115      13.7293129468 1 1 1
C                 28.6717078588      39.8451636940      13.5010414874 1 1 1
C                 30.5448500454      24.4053751538      14.4172139520 1 1 1
C                 28.7236676389      28.4026901618      14.8183540106 1 1 1
C                 24.9588678609      30.5180156883      14.7985751670 1 1 1
C                 20.6579821837      29.9874922957      14.7885279998 1 1 1
C                 17.5527017838      26.9609096743      14.7932951748 1 1 1
C                 16.8143918704      22.6743960756      14.7989242461 1 1 1
C                 18.5914203273      18.6952171217      14.7973981755 1 1 1
C                 22.1672581956      16.1874460443      14.7957524412 1 1 1
C                 26.5084625838      15.6553595029      14.7957450572 1 1 1
C                 30.6444671553      17.0898731240      14.7935730528 1 1 1
C                 33.7240278929      20.1946019331      14.7802074773 1 1 1
C                 34.7691729990      24.3957812252      14.7811525511 1 1 1
C                 33.5246085093      28.5505625250      14.8190935835 1 1 1
C                 31.6006247346      32.4637686425      14.8438694679 1 1 1
C                 30.1372972016      36.6466799278      14.7924189297 1 1 1
C                 28.6832849294      41.2051344925      13.9910679200 1 1 1
C                 30.2796686110      25.6151064527      14.6516586914 1 1 1
C                 27.7959567030      29.2250128909      14.8002340168 1 1 1
C                 23.7262310456      30.6587673330      14.8056213250 1 1 1
C                 19.5910763410      29.3522182645      14.7997314374 1 1 1
C                 17.0794967033      25.8125961407      14.7996562083 1 1 1
C                 17.0797725893      21.4612307294      14.7995017868 1 1 1
C                 19.4598564663      17.8073520160      14.7950875828 1 1 1
C                 23.3570439236      15.8311508373      14.7944768676 1 1 1
C                 27.7321713829      15.8680472378      14.7951695695 1 1 1
C                 31.6549217459      17.8118799583      14.7902192174 1 1 1
C                 34.2719639026      21.3092698355      14.7777833122 1 1 1
C                 34.6078096633      25.6265476159      14.7864973258 1 1 1
C                 32.9557299320      29.6529775738      14.8200973595 1 1 1
C                 31.1602039495      33.6230593325      14.8291673568 1 1 1
C                 29.6936383999      37.8086614785      14.7744542315 1 1 1
C                 28.1922295602      42.0861184649      13.1950210394 1 1 1
Al                26.5757503612      34.0590689470      13.2210701362 0 0 0
Cl                27.5761986518      33.1833506383      11.5056297112 1 1 1
Cl                26.8154556324      36.2079677192      13.2008088642 1 1 1
Cl                27.4930428746      33.2166308245      15.0008420811 1 1 1
Cl                24.4546909565      33.6558619690      13.1691186246 1 1 1
