&CONTROL
    restart_mode = 'restart'
    calculation = 'relax'
    prefix = 'ns_pure'
    pseudo_dir = '/home/tomas.rojas_s/pseudo/'
    outdir = '/scratch/global/tomas.rojas_s/ns/pure_cns/out'
    nstep = 200
    etot_conv_thr = 1.0D-4
    forc_conv_thr = 1.0D-3
/
&SYSTEM
    ibrav = 0
    nat = 192
    ntyp = 1
    ecutwfc = 45.0
    ecutrho = 360.0
    occupations = 'smearing'
    smearing = 'mp'
    degauss = 0.02
    vdw_corr = 'dft-d3'
/
&ELECTRONS
    conv_thr = 1.0D-8
    mixing_mode = 'local-TF'
    mixing_beta = 0.7
/
&IONS
/
&CELL
/

ATOMIC_SPECIES
C 12.011 C.pbe-n-kjpaw_psl.1.0.0.UPF

K_POINTS automatic
1 1 3 0 0 0

CELL_PARAMETERS angstrom
50.00000000000000 0.00000000000000 0.00000000000000
0.00000000000000 50.00000000000000 0.00000000000000
0.00000000000000 0.00000000000000 7.40451720000000

ATOMIC_POSITIONS (angstrom)
C               31.6568675091       22.7154470083        0.0310667776
C               30.7380753112       26.6348900709        0.0352356366
C               27.8798020800       29.7589977977        7.4382301443
C               24.0300062863       31.5026634151        0.0298728893
C               20.0164661213       30.3584232837        0.0258163818
C               17.7793194714       26.8006507188        0.0212486661
C               18.0443838138       22.5865224617        0.0176279740
C               20.4764755962       19.1208239608        0.0087639598
C               24.2289146720       17.1291994366       -0.0014343857
C               28.4619007155       16.7965682187       -0.0110218853
C               32.3673705263       18.4244225068       -0.0203177421
C               34.8250963677       21.8586250116        7.3800018894
C               34.7993004216       26.0775153418        7.3791681868
C               32.7771903723       29.8238468941       -0.0285396880
C               29.7286852387       32.8065498443       -0.0317053349
C               26.0044855402       34.7477113072       -0.0332938089
C               31.9311234070       24.1512543603        0.0339213000
C               29.8781293270       27.7492763048        0.0352116745
C               26.7080861329       30.5699992480        7.4375980176
C               22.6081855932       31.4783349123        0.0279792378
C               19.0063132367       29.3550619680        0.0243227433
C               17.5890363490       25.3887788482        0.0195772758
C               18.6477540744       21.2957623997        0.0145602958
C               21.6278914137       18.2816111134        0.0047550826
C               25.6195894697       16.8177791762       -0.0047443847
C               29.8494790415       17.1161038286       -0.0152573343
C               33.4063252793       19.3994337197       -0.0224748393
C               35.1094269592       23.2560498968        7.3796109158
C               34.2794932563       27.4036093099       -0.0261061648
C               31.8563064372       30.9107157824        7.3744951151
C               28.5356246876       33.5810020692       -0.0325551298
C               24.6973894256       35.1717913865       -0.0328714759
C               31.6310435797       24.7358337443        1.2770961850
C               29.3997359184       28.2606676674        1.2791572526
C               26.0743240537       30.9066559944        1.2659162644
C               21.9110439568       31.3287745004        1.2615951622
C               18.5960812261       28.7707241405        1.2582648688
C               17.6022027491       24.6746572368        1.2534069690
C               19.0333047977       20.6946753390        1.2475827507
C               22.2474337959       17.9283092217        1.2381007242
C               26.3282134347       16.7318729577        1.2281089231
C               30.5192236318       17.3586839914        1.2179823858
C               33.8523630545       19.9574713225        1.2106936800
C               35.1347833308       23.9700706127        1.2091446720
C               33.9533741624       28.0385131998        1.2074953966
C               31.3579388282       31.4209627008        1.2045067007
C               27.9128453400       33.9116421273        1.2125295428
C               23.9142724257       35.3650207410        1.1513303913
C               31.0555391111       26.0057672537        1.2835018790
C               28.4096533937       29.2838539585        1.2720395562
C               24.7323607788       31.3798295278        1.2641375483
C               20.6055164735       30.7619293094        1.2601167565
C               17.9815209270       27.4853983904        1.2563356875
C               17.8313082011       23.2681331070        1.2522714012
C               19.9522432861       19.6054318086        1.2439979954
C               23.5513502276       17.3531025269        1.2339106888
C               27.7529636184       16.7205914188        1.2242767489
C               31.7838302332       18.0141222150        1.2145084197
C               34.5654473081       21.1925768766        1.2091968012
C               34.9765268598       25.3870344036        1.2091869138
C               33.1995262159       29.2483172422        1.2056070474
C               30.2926468996       32.3710359257        1.2047482716
C               26.6192874189       34.4982619461        1.2191002988
C               22.5990643610       35.6744915885        0.6073260879
C               31.2970363591       22.5789125508        1.4185815864
C               30.5811312699       26.4649817890        2.5288703646
C               27.8583858793       29.7470592659        2.5011582007
C               24.0296536758       31.5028912886        2.4974561028
C               20.0167225105       30.3598801388        2.4935749246
C               17.7815951189       26.7998598392        2.4897008493
C               18.0413703332       22.5852221426        2.4852834499
C               20.4750011080       19.1204905146        2.4771360907
C               24.2296979918       17.1299916443        2.4664169023
C               28.4618470236       16.7946693112        2.4572186482
C               32.3647916403       18.4269718698        2.4472819634
C               34.8094937004       21.8622940883        2.4429516438
C               34.7896399085       26.0755250412        2.4418402349
C               32.7766109285       29.8207312885        2.4381367882
C               29.7228647894       32.7937768720        2.4393469167
C               25.8943526671       34.7348483246        2.4259280348
C               31.4650989052       23.7178015053        2.3175526289
C               29.8022853382       27.6632959974        2.5186296920
C               26.7008268872       30.5721109801        2.5007173602
C               22.6065490263       31.4817406028        2.4959739544
C               19.0083370423       29.3541865583        2.4922343087
C               17.5915872148       25.3876131506        2.4881113988
C               18.6462079214       21.2948191947        2.4824249967
C               21.6276148754       18.2822240983        2.4732577911
C               25.6197142729       16.8153747858        2.4630969273
C               29.8500186159       17.1136954469        2.4531379232
C               33.4031342795       19.4025704018        2.4448306569
C               35.0960603583       23.2584101985        2.4426788156
C               34.2747603902       27.4041861644        2.4413184204
C               31.8537980179       30.9074117629        2.4365929571
C               28.5207730272       33.5637962814        2.4423372762
C               24.5106781795       35.1666277612        2.3947268576
C               31.2589246772       24.2570673780        3.7372260501
C               29.3368408184       28.2198010415        3.7369826488
C               26.0716709918       30.9057881977        3.7352185999
C               21.9091427914       31.3324935147        3.7296142163
C               18.6005435646       28.7688079928        3.7261557189
C               17.6017035936       24.6728463148        3.7214945037
C               19.0322197627       20.6944303833        3.7158668420
C               22.2487342839       17.9297303146        3.7059161799
C               26.3281731172       16.7312719085        3.6962645176
C               30.5199537576       17.3567968867        3.6861442847
C               33.8446571685       19.9616337731        3.6790101853
C               35.1210822827       23.9701297350        3.6773665477
C               33.9483374922       28.0374930573        3.6757167664
C               31.3559574012       31.4144548591        3.6717130788
C               27.8682226793       33.8969120666        3.6699200636
C               23.7746600346       35.3174353346        3.6682888519
C               30.8459721393       25.6956806304        3.7375204516
C               28.3822334017       29.2685526485        3.7360361976
C               24.7317101248       31.3817853076        3.7327493780
C               20.6044881339       30.7648718430        3.7283600381
C               17.9848997913       27.4846781538        3.7242896861
C               17.8278108895       23.2660670797        3.7204183772
C               19.9492483232       19.6037391214        3.7123290731
C               23.5525032800       17.3543150092        3.7017812610
C               27.7526926557       16.7175218954        3.6924906175
C               31.7823417528       18.0160507187        3.6826705654
C               34.5521977339       21.1975275228        3.6780066746
C               34.9608489872       25.3844683975        3.6771299477
C               33.1972173121       29.2463949830        3.6740272210
C               30.2903004743       32.3571725108        3.6708910525
C               26.5547332490       34.4727058745        3.6694081728
C               22.4469525880       35.5326529713        3.6634955531
C               31.2978020589       22.5728002568        6.0468168230
C               30.5812475368       26.4658713133        4.9458146352
C               27.8601709328       29.7478525184        4.9708517914
C               24.0295534533       31.5032865543        4.9666918116
C               20.0175548316       30.3595937046        4.9624956387
C               17.7818982624       26.7993684644        4.9576245893
C               18.0410890414       22.5850955236        4.9543393760
C               20.4737541496       19.1187427767        4.9451266683
C               24.2299549373       17.1304681812        4.9349688398
C               28.4620827826       16.7921753392        4.9254484735
C               32.3650239262       18.4268683343        4.9161776914
C               34.8113311614       21.8616144649        4.9124405567
C               34.7885068224       26.0753106328        4.9118959657
C               32.7769286684       29.8209645951        4.9089300895
C               29.7231722543       32.7935245442        4.9021529068
C               25.8906761784       34.7300403553        4.9122937207
C               31.4673441607       23.7173635506        5.1547492887
C               29.8040584845       27.6652407803        4.9558604403
C               26.6996203025       30.5687849192        4.9703441362
C               22.6065824972       31.4807530839        4.9643558258
C               19.0104893479       29.3528948510        4.9609081888
C               17.5901565744       25.3872283244        4.9559145065
C               18.6468035619       21.2951500955        4.9512493728
C               21.6278554307       18.2822690534        4.9410925634
C               25.6203490557       16.8181881230        4.9316716292
C               29.8504434702       17.1118334549        4.9213577931
C               33.4022449118       19.4033864822        4.9140983156
C               35.0982017673       23.2578967981        4.9119883635
C               34.2734890202       27.4038650622        4.9109278206
C               31.8541369270       30.9075761925        4.9075477036
C               28.5201212916       33.5621417192        4.8976089505
C               24.5059293233       35.1607186456        4.9441188160
C               31.6297672071       24.7354381437        6.1961073386
C               29.4022168472       28.2627557249        6.1953100339
C               26.0729522494       30.9037655794        6.2039786858
C               21.9111019101       31.3286527281        6.1978832845
C               18.5979571752       28.7697493461        6.1937998170
C               17.6003118215       24.6740621241        6.1896703201
C               19.0332626283       20.6945038824        6.1840663544
C               22.2477408594       17.9279417957        6.1737222318
C               26.3283088906       16.7332151277        6.1646599831
C               30.5200157930       17.3577375016        6.1539222301
C               33.8498093223       19.9589384601        6.1475216762
C               35.1343889295       23.9698747155        6.1452929312
C               33.9517837442       28.0378101410        6.1441105739
C               31.3581917765       31.4207767474        6.1390962752
C               27.9111707430       33.9090646401        6.1266250815
C               23.9098658120       35.3577304862        6.1886156712
C               31.0543122463       26.0053063055        6.1911708190
C               28.4127033870       29.2864665918        6.2005823618
C               24.7322815615       31.3803943267        6.2011071419
C               20.6053954035       30.7624647425        6.1969724319
C               17.9825527068       27.4849621474        6.1918390402
C               17.8301373024       23.2675774047        6.1887080031
C               19.9505346602       19.6036548696        6.1804282465
C               23.5512525087       17.3517724173        6.1698145690
C               27.7530089706       16.7184235360        6.1607120208
C               31.7841836904       18.0142018651        6.1507863895
C               34.5643362921       21.1929711427        6.1467926553
C               34.9744428655       25.3865824001        6.1449370187
C               33.1989850528       29.2482050224        6.1425599411
C               30.2930422375       32.3708122228        6.1371227804
C               26.6165038768       34.4936572086        6.1188403654
C               22.5972551594       35.6681740732        6.7389314841
