&CONTROL
    restart_mode = 'from_scratch'
    calculation = 'relax'
    prefix = 'ns'
    pseudo_dir = '/home/tomas.rojas_s/pseudo/'
    outdir = '/scratch/global/tomas.rojas_s/ns/c1_flip/out'
    nstep = 200
    etot_conv_thr = 1.0D-4
    forc_conv_thr = 1.0D-3
/
&SYSTEM
    ibrav = 0
    nat = 197
    ntyp = 3
    ecutwfc = 45.0
    ecutrho = 360.0
    occupations = 'smearing'
    smearing = 'mp'
    degauss = 0.02
    vdw_corr = 'dft-d3'
/
&ELECTRONS
    conv_thr = 1.0D-8
    mixing_mode = 'local-TF'
    mixing_beta = 0.7
/
&IONS
/
&CELL
/

ATOMIC_SPECIES
C 12.011 C.pbe-n-kjpaw_psl.1.0.0.UPF
Al 26.9815385 Al.pbe-n-kjpaw_psl.1.0.0.UPF
Cl 35.45 Cl.pbe-n-kjpaw_psl.1.0.0.UPF

K_POINTS automatic
1 1 3 0 0 0

CELL_PARAMETERS angstrom
50.00000000000000 0.00000000000000 0.00000000000000
0.00000000000000 50.00000000000000 0.00000000000000
0.00000000000000 0.00000000000000 7.40451720000000

ATOMIC_POSITIONS angstrom
C                 30.7090582109      22.7459088662       1.1126362788
C                 30.0212360329      26.6530453946       7.4107029646
C                 27.0578303271      29.6743545915       0.0345959669
C                 22.9263832189      30.4366270367       0.0342371156
C                 19.1170949895      28.6327817539       0.0333767104
C                 17.0843898532      24.9425714516       0.0337663578
C                 17.5887773088      20.7571135460       0.0336293746
C                 20.2856327727      17.4977504215       0.0326575070
C                 24.2302699409      15.9523962864       0.0311496717
C                 28.4535641196      16.3623806894       0.0302142997
C                 32.0754400384      18.5658035462       0.0302267772
C                 34.2209335447      22.2038862261       0.0297912289
C                 34.0937464380      26.4295522581       0.0292196698
C                 32.5296204753      30.4003089760       0.0270653409
C                 30.8718585391      34.3351207914       0.0307891589
C                 29.3855198676      38.3698664414       7.4236131900
C                 30.8749481523      23.8918715847       0.2193138097
C                 29.2240523079      27.8397739570       7.4207990334
C                 25.7443761652      30.2199193993       0.0347887376
C                 21.5400984791      30.1045386606       0.0334276651
C                 18.1853100461      27.5542108410       0.0339359242
C                 16.9644181775      23.5227944629       0.0338118900
C                 18.2880079219      19.5158141734       0.0334716424
C                 21.5095030150      16.7684189204       0.0319934329
C                 25.6528385727      15.8758418866       0.0307367686
C                 29.7688107030      16.9087257366       0.0302399153
C                 33.0045655007      19.6444235098       0.0301189366
C                 34.4333149137      23.6118745408       0.0295996550
C                 33.6520552322      27.7832410993       0.0284059532
C                 31.9503396435      31.7016745042       0.0273852759
C                 30.3670919674      35.6686730547       0.0348515071
C                 28.8909843070      39.7332442584       7.3910506788
C                 31.0342250478      24.9086995130       1.2611393646
C                 28.7864764281      28.4108462166       1.2560464449
C                 25.0545711019      30.3723509958       1.2685195968
C                 20.8805385452      29.8317591337       1.2664315192
C                 17.8085115844      26.9485367577       1.2679067424
C                 17.0155005950      22.8115347289       1.2677093293
C                 18.7196965902      18.9476920742       1.2672628459
C                 22.1621943377      16.4811006502       1.2658698712
C                 26.3649276596      15.9179224428       1.2645628587
C                 30.3922249483      17.2545594015       1.2641327281
C                 33.4017788267      20.2365867312       1.2638586769
C                 34.4493784597      24.3236529118       1.2631072383
C                 33.3932614363      28.4456443567       1.2618970370
C                 31.6720187737      32.3542377348       1.2611041626
C                 30.1244791265      36.3562348379       1.2613716618
C                 28.6692101448      40.4429871863       1.2612766105
C                 30.4827829567      26.1891028171       1.2537346075
C                 27.6800499822      29.3099326448       1.2622673077
C                 23.6354998140      30.4835801423       1.2680566428
C                 19.6619975696      29.0930022191       1.2667753674
C                 17.2545103701      25.6355186932       1.2677427710
C                 17.3294541272      21.4217506901       1.2676000022
C                 19.7231478362      17.9361517910       1.2668802084
C                 23.5273432923      16.0725727092       1.2652164083
C                 27.7687179892      16.1622514140       1.2641828916
C                 31.5499231022      18.0847092289       1.2642154723
C                 34.0206810662      21.5206028787       1.2638668257
C                 34.2699350278      25.7383929360       1.2628480258
C                 32.8261498167      29.7536004415       1.2612225737
C                 31.1326294655      33.6725946891       1.2612968398
C                 29.6366418976      37.7072175696       1.2619365145
C                 28.3025523458      41.7320900850       1.2577362333
C                 31.0578526967      22.8844538742       2.5023716494
C                 30.1706587879      26.8236742238       2.5012155961
C                 27.0731519168      29.6779710664       2.5010029150
C                 22.9254266139      30.4252461080       2.5013545965
C                 19.1169083343      28.6330375906       2.5015492362
C                 17.0837131643      24.9429119215       2.5020070311
C                 17.5875301789      20.7563371648       2.5015204510
C                 20.2860614131      17.4977412717       2.5008389548
C                 24.2303745373      15.9524360884       2.4991353834
C                 28.4541304424      16.3602757415       2.4979705279
C                 32.0771670442      18.5645650808       2.4978921550
C                 34.2378519933      22.2005610587       2.4968917025
C                 34.1045566694      26.4315148052       2.4964797826
C                 32.5335811885      30.4023614653       2.4949920660
C                 30.8743292688      34.3361525653       2.4919999174
C                 29.3979556806      38.3757882787       2.5045122716
C                 31.3260720589      24.3216703920       2.5022910152
C                 29.2932839742      27.9265410469       2.5009032784
C                 25.7508987932      30.2062919887       2.5011410546
C                 21.5407581687      30.1001903761       2.5010905709
C                 18.1861029515      27.5547448557       2.5020244764
C                 16.9651971033      23.5232546700       2.5019407127
C                 18.2870614688      19.5152871432       2.5013016925
C                 21.5096480906      16.7683148308       2.5001535331
C                 25.6529938491      15.8748807853       2.4987322712
C                 29.7693081391      16.9071179933       2.4980116522
C                 33.0076641087      19.6426688156       2.4974301060
C                 34.4506645108      23.6100592151       2.4965163627
C                 33.6577878692      27.7844939570       2.4956567672
C                 31.9536161418      31.7031851250       2.4948806142
C                 30.3748027540      35.6713976167       2.4880413962
C                 28.8984381576      39.7372455007       2.5369762021
C                 31.0335241238      24.9087186396       3.7429866223
C                 28.7864930621      28.4110875566       3.7457245447
C                 25.0555499655      30.3752084570       3.7340723370
C                 20.8795181216      29.8338153558       3.7358243921
C                 17.8079789890      26.9495026114       3.7363358629
C                 17.0156274178      22.8114252455       3.7359399574
C                 18.7204561325      18.9483993215       3.7352905599
C                 22.1625780045      16.4815517279       3.7342782108
C                 26.3653415228      15.9190427408       3.7327944166
C                 30.3929476004      17.2534130035       3.7323229627
C                 33.4008119624      20.2381449389       3.7313206107
C                 34.4475368608      24.3238238956       3.7310803031
C                 33.3925404515      28.4468446856       3.7299867796
C                 31.6711072749      32.3578691164       3.7288991907
C                 30.1320680840      36.3261109518       3.7190982108
C                 28.6653168912      40.3253820468       3.7781548782
C                 30.4825764052      26.1894721003       3.7490882826
C                 27.6809170509      29.3112400283       3.7395770485
C                 23.6360024112      30.4836616220       3.7344866799
C                 19.6610040569      29.0945727640       3.7361029851
C                 17.2537161287      25.6364806909       3.7361954447
C                 17.3308735006      21.4220127795       3.7358145805
C                 19.7232541743      17.9365092819       3.7350096761
C                 23.5277552604      16.0738612258       3.7336063337
C                 27.7690786662      16.1615010263       3.7324519995
C                 31.5495861799      18.0843747605       3.7321970126
C                 34.0196340358      21.5209213096       3.7309833922
C                 34.2701331254      25.7376024048       3.7309484293
C                 32.8252003177      29.7532297176       3.7299197200
C                 31.1312024313      33.6757324031       3.7279625794
C                 29.6501942481      37.6608195366       3.7121313246
C                 28.2089093596      41.5938722082       4.3364391464
C                 30.7079404667      22.7463434919       3.8920378697
C                 30.0202770083      26.6529421847       4.9962740810
C                 27.0593918182      29.6766235792       4.9675479619
C                 22.9261230558      30.4373504254       4.9680499419
C                 19.1167123244      28.6339210491       4.9698835465
C                 17.0834999517      24.9429780334       4.9697283439
C                 17.5899718274      20.7575384082       4.9697156112
C                 20.2856892234      17.4980249136       4.9689667973
C                 24.2305875079      15.9535546027       4.9673393966
C                 28.4541411272      16.3602288156       4.9663684811
C                 32.0752843253      18.5657886070       4.9658178272
C                 34.2201850906      22.2033195552       4.9651647967
C                 34.0943435577      26.4290051995       4.9639367810
C                 32.5286652755      30.4006111008       4.9632811614
C                 30.8709977101      34.3345207332       4.9632052161
C                 29.4128302661      38.2778910848       4.9630533913
C                 30.8737743226      23.8919642163       4.7850975603
C                 29.2240639055      27.8401708347       4.9857048806
C                 25.7456611217      30.2223003545       4.9677166297
C                 21.5393058969      30.1062866009       4.9686799506
C                 18.1846748362      27.5553527560       4.9702290813
C                 16.9638297760      23.5230178836       4.9696913340
C                 18.2891305406      19.5163154724       4.9694182997
C                 21.5096086423      16.7686016385       4.9683373104
C                 25.6533785707      15.8767798013       4.9669428455
C                 29.7699075412      16.9066888755       4.9663028379
C                 33.0041649686      19.6454743873       4.9652735205
C                 34.4317334510      23.6121593727       4.9649269903
C                 33.6522735321      27.7838666762       4.9635218827
C                 31.9494492583      31.7034209218       4.9633859353
C                 30.3662568428      35.6638504975       4.9628917198
C                 28.9359850327      39.5675735472       4.9636683322
C                 30.6780436907      24.4340398169       6.2044825172
C                 28.7265682590      28.3694909208       6.2033030816
C                 25.0545777775      30.3894241387       6.2033731633
C                 20.8798066292      29.8348933783       6.2034246025
C                 17.8080842493      26.9483427579       6.2042719747
C                 17.0158105803      22.8113677776       6.2038797470
C                 18.7207686847      18.9487368372       6.2036212654
C                 22.1627180049      16.4820810901       6.2021483258
C                 26.3651174646      15.9203890170       6.2008948800
C                 30.3921667086      17.2551573497       6.2002305189
C                 33.3948598374      20.2397032387       6.1996733889
C                 34.4288717757      24.3237554076       6.1989118198
C                 33.3868343055      28.4442413974       6.1975060675
C                 31.6679179865      32.3564148928       6.1978936185
C                 30.1206882191      36.3211315638       6.2074204907
C                 28.6611447895      40.3223909719       6.1505137121
C                 30.2831692528      25.8788370102       6.2037151857
C                 27.6574932560      29.3010355225       6.2034299448
C                 23.6356612127      30.4988292265       6.2033885212
C                 19.6626404390      29.0939815491       6.2038336942
C                 17.2556036453      25.6352322973       6.2040680496
C                 17.3316430481      21.4224041345       6.2038610624
C                 19.7232646104      17.9368550819       6.2032281124
C                 23.5276627025      16.0738874718       6.2014827093
C                 27.7685311162      16.1635812858       6.2004980944
C                 31.5483725121      18.0863249926       6.1999965059
C                 34.0063046476      21.5247861284       6.1995703805
C                 34.2535832032      25.7361910441       6.1984679701
C                 32.8205894595      29.7508529277       6.1967074649
C                 31.1289126406      33.6754080993       6.1990783972
C                 29.6362037242      37.6551029244       6.2145377941
C                 28.2042406234      41.5932336716       5.5987387912
Al                26.5757503612      34.0590689470       2.4210701362
Cl                27.5309969943      34.9207536070       4.1703866639
Cl                26.7749073108      31.9132265646       2.4410839261
Cl                27.5626328234      34.9224073208       0.6906202577
Cl                24.4661766047      34.5369354662       2.3859389173
