&CONTROL
    restart_mode = 'restart'
    calculation = 'relax'
    prefix = 'ns'
    pseudo_dir = '/home/tomas.rojas_s/pseudo/'
    outdir = '/scratch/global/tomas.rojas_s/ns/extraction_path/step_2/out'
    nstep = 200
    etot_conv_thr = 1.0D-4
    forc_conv_thr = 1.0D-3
/
&SYSTEM
    ibrav = 0
    nat = 197
    ntyp = 3
    ecutwfc = 45.0
    ecutrho = 360.0
    occupations = 'smearing'
    smearing = 'mp'
    degauss = 0.02
    vdw_corr = 'dft-d3'
/
&ELECTRONS
    conv_thr = 1.0D-8
    mixing_mode = 'local-TF'
    mixing_beta = 0.7
/
&IONS
/
&CELL
/

ATOMIC_SPECIES
C 12.011 C.pbe-n-kjpaw_psl.1.0.0.UPF
Al 26.9815385 Al.pbe-n-kjpaw_psl.1.0.0.UPF
Cl 35.45 Cl.pbe-n-kjpaw_psl.1.0.0.UPF

K_POINTS automatic
1 1 3 0 0 0

CELL_PARAMETERS angstrom
50.00000000000000 0.00000000000000 0.00000000000000
0.00000000000000 50.00000000000000 0.00000000000000
0.00000000000000 0.00000000000000 7.40451720000000

ATOMIC_POSITIONS angstrom
C                 30.7726868970      22.7152910714       1.1148708833 1 1 1
C                 30.0327989535      26.5799646301       7.4111616082 1 1 1
C                 26.9353390616      29.4648342565       0.0345538696 1 1 1
C                 22.8058827242      30.3017206379       0.0344153626 1 1 1
C                 18.9513700426      28.6092586453       0.0338101536 1 1 1
C                 16.9706980040      24.8971288269       0.0341320356 1 1 1
C                 17.5536445283      20.7160461827       0.0342027237 1 1 1
C                 20.2898473550      17.4864688899       0.0340882215 1 1 1
C                 24.2441063544      15.9529775473       0.0338380584 1 1 1
C                 28.4694935625      16.3223155609       0.0339277125 1 1 1
C                 32.0767935460      18.5507931982       0.0340068791 1 1 1
C                 34.2551185512      22.1780411837       0.0335723643 1 1 1
C                 34.3241032869      26.4116522933       0.0335727117 1 1 1
C                 33.1049581141      30.5036938488       0.0323261170 1 1 1
C                 31.6500717443      34.5179296880       0.0352763040 1 1 1
C                 30.0236828503      38.4981433410       7.4268160192 1 1 1
C                 30.9456870989      23.8508605558       0.2174957827 1 1 1
C                 29.1760925365      27.7232477343       7.4209020396 1 1 1
C                 25.6192953457      30.0034894474       0.0348824004 1 1 1
C                 21.4077081361      30.0215581529       0.0340027957 1 1 1
C                 18.0198349112      27.5299427622       0.0340455556 1 1 1
C                 16.8836115960      23.4739472942       0.0343524889 1 1 1
C                 18.2693326317      19.4835418937       0.0340315484 1 1 1
C                 21.5213646643      16.7693052400       0.0341325742 1 1 1
C                 25.6656530891      15.8598767866       0.0337889460 1 1 1
C                 29.7830529518      16.8740208909       0.0339523261 1 1 1
C                 33.0021662640      19.6335209110       0.0340878956 1 1 1
C                 34.5127864997      23.5781811265       0.0335478058 1 1 1
C                 33.9886745164      27.7956962931       0.0331588668 1 1 1
C                 32.6267054364      31.8457478285       0.0324217852 1 1 1
C                 31.1370505082      35.8484949438       0.0389750390 1 1 1
C                 29.4343032103      39.8234083886       7.3933268102 1 1 1
C                 31.1093800575      24.8716744406       1.2577416781 1 1 1
C                 28.7100963275      28.2680704206       1.2561903406 1 1 1
C                 24.9321383875      30.1665612093       1.2680968542 1 1 1
C                 20.7388121549      29.7718143644       1.2671718372 1 1 1
C                 17.6499967661      26.9195498904       1.2676237916 1 1 1
C                 16.9485718851      22.7630033678       1.2682654663 1 1 1
C                 18.7081567216      18.9206888138       1.2680346439 1 1 1
C                 22.1772788470      16.4877142126       1.2681085044 1 1 1
C                 26.3778610343      15.8917919780       1.2678859047 1 1 1
C                 30.4026714521      17.2270791681       1.2679494346 1 1 1
C                 33.4040954621      20.2235222267       1.2675724923 1 1 1
C                 34.5575655777      24.2883326432       1.2673859723 1 1 1
C                 33.7880707524      28.4778645678       1.2668234306 1 1 1
C                 32.3908704468      32.5140363319       1.2662779916 1 1 1
C                 30.8798171243      36.5305609051       1.2652989973 1 1 1
C                 29.1626558188      40.5131624731       1.2646687357 1 1 1
C                 30.5228569732      26.1385984899       1.2519867880 1 1 1
C                 27.5647618982      29.1153358875       1.2621625872 1 1 1
C                 23.5172225027      30.3232128109       1.2678324100 1 1 1
C                 19.5025747618      29.0618080220       1.2673963305 1 1 1
C                 17.1239727040      25.5943581027       1.2679017549 1 1 1
C                 17.2858348442      21.3777650403       1.2681294160 1 1 1
C                 19.7230313510      17.9200313586       1.2680599184 1 1 1
C                 23.5419896207      16.0776251067       1.2680556642 1 1 1
C                 27.7835555867      16.1249927803       1.2678111229 1 1 1
C                 31.5536387309      18.0675411368       1.2679755516 1 1 1
C                 34.0411893318      21.4989734101       1.2677222934 1 1 1
C                 34.4533150936      25.7101830058       1.2671486745 1 1 1
C                 33.3412711816      29.8323174501       1.2664873221 1 1 1
C                 31.9052321269      33.8529195315       1.2657336447 1 1 1
C                 30.3191447141      37.8527263609       1.2652247695 1 1 1
C                 28.7114755819      41.7752713312       1.2627781894 1 1 1
C                 31.1322751870      22.8486684074       2.5002814291 1 1 1
C                 30.1843203310      26.7607064744       2.5003694994 1 1 1
C                 26.9465513516      29.4623412950       2.5008067135 1 1 1
C                 22.8046190759      30.2946308730       2.5014242785 1 1 1
C                 18.9511972205      28.6081887118       2.5018568216 1 1 1
C                 16.9706538630      24.8970517316       2.5022206119 1 1 1
C                 17.5531332550      20.7154766007       2.5022410931 1 1 1
C                 20.2906978030      17.4875158888       2.5021531512 1 1 1
C                 24.2439156070      15.9487078882       2.5020496636 1 1 1
C                 28.4678643750      16.3245938229       2.5017889777 1 1 1
C                 32.0786794353      18.5513391146       2.5015150942 1 1 1
C                 34.2740927191      22.1732954883       2.5010638858 1 1 1
C                 34.3341150030      26.4125484939       2.5006502788 1 1 1
C                 33.1083913216      30.5045677577       2.5004283712 1 1 1
C                 31.6646131782      34.5237350351       2.4961898267 1 1 1
C                 30.0371222203      38.5035822283       2.5082888355 1 1 1
C                 31.4106077872      24.2861799942       2.5002759959 1 1 1
C                 29.2443491553      27.8119509165       2.5005504708 1 1 1
C                 25.6239059014      29.9835826612       2.5009702651 1 1 1
C                 21.4080151969      30.0190607901       2.5016308098 1 1 1
C                 18.0193315139      27.5303796506       2.5019860563 1 1 1
C                 16.8837042856      23.4742236189       2.5023973266 1 1 1
C                 18.2684837966      19.4830242126       2.5020918850 1 1 1
C                 21.5218014267      16.7698895015       2.5021067532 1 1 1
C                 25.6655761905      15.8559525056       2.5020270798 1 1 1
C                 29.7810492504      16.8771757756       2.5016938362 1 1 1
C                 33.0088541146      19.6304429717       2.5013161862 1 1 1
C                 34.5311822746      23.5752650879       2.5008025297 1 1 1
C                 33.9940275775      27.7962159437       2.5003217703 1 1 1
C                 32.6326230573      31.8474618765       2.5001310257 1 1 1
C                 31.1594605899      35.8565555515       2.4919970945 1 1 1
C                 29.4410965952      39.8254818213       2.5403648909 1 1 1
C                 31.1091789822      24.8715454820       3.7429109822 1 1 1
C                 28.7093465612      28.2673359418       3.7449090446 1 1 1
C                 24.9325658294      30.1686661328       3.7338484183 1 1 1
C                 20.7388027535      29.7717976493       3.7362568374 1 1 1
C                 17.6501502259      26.9195495451       3.7364067672 1 1 1
C                 16.9483887035      22.7628482533       3.7364499957 1 1 1
C                 18.7083096823      18.9209547614       3.7363498581 1 1 1
C                 22.1771461149      16.4870296262       3.7362258452 1 1 1
C                 26.3778770021      15.8929768954       3.7363438875 1 1 1
C                 30.4033097757      17.2268910275       3.7356553039 1 1 1
C                 33.4038430099      20.2240178681       3.7356826735 1 1 1
C                 34.5569918934      24.2891177595       3.7351236735 1 1 1
C                 33.7888543175      28.4791215138       3.7349712538 1 1 1
C                 32.3901231171      32.5179376172       3.7337553339 1 1 1
C                 30.8924932767      36.5016283143       3.7228664067 1 1 1
C                 29.1646933698      40.3961878942       3.7805333611 1 1 1
C                 30.5227549743      26.1385313295       3.7486897930 1 1 1
C                 27.5641240306      29.1142957802       3.7394164311 1 1 1
C                 23.5173334832      30.3250610484       3.7347376227 1 1 1
C                 19.5025158404      29.0619064251       3.7362665316 1 1 1
C                 17.1241403638      25.5943777116       3.7365942729 1 1 1
C                 17.2856392973      21.3777062182       3.7364021148 1 1 1
C                 19.7233205926      17.9205196445       3.7363379237 1 1 1
C                 23.5417474822      16.0770394719       3.7361939115 1 1 1
C                 27.7832766087      16.1254502458       3.7362407211 1 1 1
C                 31.5543830453      18.0663823242       3.7355412320 1 1 1
C                 34.0396563134      21.4990033613       3.7353296934 1 1 1
C                 34.4538242326      25.7097353581       3.7352614528 1 1 1
C                 33.3423800144      29.8321261902       3.7351415160 1 1 1
C                 31.9041534411      33.8567013677       3.7324428256 1 1 1
C                 30.3402247700      37.8088069777       3.7159631216 1 1 1
C                 28.6111901785      41.6268044605       4.3356643298 1 1 1
C                 30.7725045161      22.7150679491       3.8857133764 1 1 1
C                 30.0326749588      26.5798725002       4.9939605836 1 1 1
C                 26.9350641474      29.4644721318       4.9670284423 1 1 1
C                 22.8058346566      30.3026837215       4.9684097658 1 1 1
C                 18.9513686105      28.6094256616       4.9700106671 1 1 1
C                 16.9706202182      24.8970684953       4.9702363837 1 1 1
C                 17.5534975918      20.7161061338       4.9704110136 1 1 1
C                 20.2900735038      17.4867405323       4.9703272431 1 1 1
C                 24.2438687628      15.9527248325       4.9704178127 1 1 1
C                 28.4692345675      16.3224418296       4.9699358330 1 1 1
C                 32.0774903342      18.5498116904       4.9696008091 1 1 1
C                 34.2529711657      22.1779885697       4.9692475245 1 1 1
C                 34.3255467168      26.4111736789       4.9685419468 1 1 1
C                 33.1052099736      30.5041602742       4.9684173031 1 1 1
C                 31.6497788096      34.5178599484       4.9674270762 1 1 1
C                 30.0620125798      38.4102186945       4.9663634305 1 1 1
C                 30.9454529661      23.8506617263       4.7829836721 1 1 1
C                 29.1757775274      27.7229592765       4.9846167642 1 1 1
C                 25.6197621545      30.0050559482       4.9670605970 1 1 1
C                 21.4076539903      30.0218201402       4.9691985349 1 1 1
C                 18.0199079321      27.5300319385       4.9699804011 1 1 1
C                 16.8835420175      23.4738042302       4.9704221464 1 1 1
C                 18.2693252617      19.4835959633       4.9702742735 1 1 1
C                 21.5212770869      16.7688836499       4.9702214357 1 1 1
C                 25.6657132110      15.8607725835       4.9704700605 1 1 1
C                 29.7833581096      16.8740770622       4.9697196623 1 1 1
C                 33.0023515907      19.6337318983       4.9693598527 1 1 1
C                 34.5114861704      23.5789630104       4.9691254979 1 1 1
C                 33.9901948177      27.7964998468       4.9686365127 1 1 1
C                 32.6263929335      31.8476799622       4.9682540810 1 1 1
C                 31.1386827420      35.8446148102       4.9666560525 1 1 1
C                 29.4928270498      39.6620358281       4.9663164499 1 1 1
C                 30.7385299060      24.3858809082       6.2025472113 1 1 1
C                 28.6495600764      28.2229174794       6.2028474893 1 1 1
C                 24.9323222830      30.1849767767       6.2032877841 1 1 1
C                 20.7387980672      29.7726674862       6.2039791504 1 1 1
C                 17.6515677820      26.9184636119       6.2042105973 1 1 1
C                 16.9485077442      22.7627073801       6.2046341433 1 1 1
C                 18.7081958680      18.9204738954       6.2043788685 1 1 1
C                 22.1763106539      16.4860052920       6.2043564704 1 1 1
C                 26.3782920703      15.8949630559       6.2042679077 1 1 1
C                 30.4049038787      17.2237684181       6.2037904438 1 1 1
C                 33.3939814077      20.2276154800       6.2036575838 1 1 1
C                 34.5397378575      24.2899652943       6.2030909577 1 1 1
C                 33.7852378137      28.4784682869       6.2024607919 1 1 1
C                 32.3819528124      32.5152163306       6.2027215579 1 1 1
C                 30.8699292745      36.4929029644       6.2114391129 1 1 1
C                 29.1606871865      40.3944125757       6.1525817189 1 1 1
C                 30.3171369925      25.8158781764       6.2025763225 1 1 1
C                 27.5419402790      29.1061640314       6.2029755809 1 1 1
C                 23.5174696384      30.3362749126       6.2035728045 1 1 1
C                 19.5030393197      29.0629475446       6.2041074440 1 1 1
C                 17.1253907778      25.5940912256       6.2044232965 1 1 1
C                 17.2854743562      21.3777793736       6.2045789092 1 1 1
C                 19.7220756350      17.9190538042       6.2043399314 1 1 1
C                 23.5415203515      16.0786007219       6.2043385730 1 1 1
C                 27.7843371074      16.1245637979       6.2041256973 1 1 1
C                 31.5550021537      18.0644642548       6.2037624585 1 1 1
C                 34.0226604503      21.5047538825       6.2033869906 1 1 1
C                 34.4413099205      25.7097579148       6.2028919984 1 1 1
C                 33.3389668635      29.8314499095       6.2019367726 1 1 1
C                 31.8929319836      33.8530906941       6.2034259419 1 1 1
C                 30.3222616451      37.8020789164       6.2179783704 1 1 1
C                 28.6101661486      41.6267809196       5.5988359354 1 1 1
Al                28.5757503612      33.0590689470       2.4210701362 0 0 0
Cl                29.4881577746      32.1966272178       0.6538275124 1 1 1
Cl                28.8386484869      35.2001560466       2.4801349180 1 1 1
Cl                29.5025402008      32.1065696739       4.1348511134 1 1 1
Cl                26.4318338671      32.7511432662       2.4155859047 1 1 1
