&CONTROL
    restart_mode = 'restart'
    calculation = 'relax'
    prefix = 'ns'
    pseudo_dir = '/home/tomas.rojas_s/pseudo/'
    outdir = '/scratch/global/tomas.rojas_s/ns/extraction_path/step_1/out'
    nstep = 200
    etot_conv_thr = 1.0D-4
    forc_conv_thr = 1.0D-3
/
&SYSTEM
    ibrav = 0
    nat = 197
    ntyp = 3
    ecutwfc = 45.0
    ecutrho = 360.0
    occupations = 'smearing'
    smearing = 'mp'
    degauss = 0.02
    vdw_corr = 'dft-d3'
/
&ELECTRONS
    conv_thr = 1.0D-8
    mixing_mode = 'local-TF'
    mixing_beta = 0.7
/
&IONS
/
&CELL
/

ATOMIC_SPECIES
C 12.011 C.pbe-n-kjpaw_psl.1.0.0.UPF
Al 26.9815385 Al.pbe-n-kjpaw_psl.1.0.0.UPF
Cl 35.45 Cl.pbe-n-kjpaw_psl.1.0.0.UPF

K_POINTS automatic
1 1 3 0 0 0

CELL_PARAMETERS angstrom
50.00000000000000 0.00000000000000 0.00000000000000
0.00000000000000 50.00000000000000 0.00000000000000
0.00000000000000 0.00000000000000 7.40451720000000

ATOMIC_POSITIONS angstrom
C                 30.7090582109      22.7459088662       1.1126362788 1 1 1
C                 30.0212360329      26.6530453946       7.4107029646 1 1 1
C                 27.0578303271      29.6743545915       0.0345959669 1 1 1
C                 22.9263832189      30.4366270367       0.0342371156 1 1 1
C                 19.1170949895      28.6327817539       0.0333767104 1 1 1
C                 17.0843898532      24.9425714516       0.0337663578 1 1 1
C                 17.5887773088      20.7571135460       0.0336293746 1 1 1
C                 20.2856327727      17.4977504215       0.0326575070 1 1 1
C                 24.2302699409      15.9523962864       0.0311496717 1 1 1
C                 28.4535641196      16.3623806894       0.0302142997 1 1 1
C                 32.0754400384      18.5658035462       0.0302267772 1 1 1
C                 34.2209335447      22.2038862261       0.0297912289 1 1 1
C                 34.0937464380      26.4295522581       0.0292196698 1 1 1
C                 32.5296204753      30.4003089760       0.0270653409 1 1 1
C                 30.8718585391      34.3351207914       0.0307891589 1 1 1
C                 29.3855198676      38.3698664414       7.4236131900 1 1 1
C                 30.8749481523      23.8918715847       0.2193138097 1 1 1
C                 29.2240523079      27.8397739570       7.4207990334 1 1 1
C                 25.7443761652      30.2199193993       0.0347887376 1 1 1
C                 21.5400984791      30.1045386606       0.0334276651 1 1 1
C                 18.1853100461      27.5542108410       0.0339359242 1 1 1
C                 16.9644181775      23.5227944629       0.0338118900 1 1 1
C                 18.2880079219      19.5158141734       0.0334716424 1 1 1
C                 21.5095030150      16.7684189204       0.0319934329 1 1 1
C                 25.6528385727      15.8758418866       0.0307367686 1 1 1
C                 29.7688107030      16.9087257366       0.0302399153 1 1 1
C                 33.0045655007      19.6444235098       0.0301189366 1 1 1
C                 34.4333149137      23.6118745408       0.0295996550 1 1 1
C                 33.6520552322      27.7832410993       0.0284059532 1 1 1
C                 31.9503396435      31.7016745042       0.0273852759 1 1 1
C                 30.3670919674      35.6686730547       0.0348515071 1 1 1
C                 28.8909843070      39.7332442584       7.3910506788 1 1 1
C                 31.0342250478      24.9086995130       1.2611393646 1 1 1
C                 28.7864764281      28.4108462166       1.2560464449 1 1 1
C                 25.0545711019      30.3723509958       1.2685195968 1 1 1
C                 20.8805385452      29.8317591337       1.2664315192 1 1 1
C                 17.8085115844      26.9485367577       1.2679067424 1 1 1
C                 17.0155005950      22.8115347289       1.2677093293 1 1 1
C                 18.7196965902      18.9476920742       1.2672628459 1 1 1
C                 22.1621943377      16.4811006502       1.2658698712 1 1 1
C                 26.3649276596      15.9179224428       1.2645628587 1 1 1
C                 30.3922249483      17.2545594015       1.2641327281 1 1 1
C                 33.4017788267      20.2365867312       1.2638586769 1 1 1
C                 34.4493784597      24.3236529118       1.2631072383 1 1 1
C                 33.3932614363      28.4456443567       1.2618970370 1 1 1
C                 31.6720187737      32.3542377348       1.2611041626 1 1 1
C                 30.1244791265      36.3562348379       1.2613716618 1 1 1
C                 28.6692101448      40.4429871863       1.2612766105 1 1 1
C                 30.4827829567      26.1891028171       1.2537346075 1 1 1
C                 27.6800499822      29.3099326448       1.2622673077 1 1 1
C                 23.6354998140      30.4835801423       1.2680566428 1 1 1
C                 19.6619975696      29.0930022191       1.2667753674 1 1 1
C                 17.2545103701      25.6355186932       1.2677427710 1 1 1
C                 17.3294541272      21.4217506901       1.2676000022 1 1 1
C                 19.7231478362      17.9361517910       1.2668802084 1 1 1
C                 23.5273432923      16.0725727092       1.2652164083 1 1 1
C                 27.7687179892      16.1622514140       1.2641828916 1 1 1
C                 31.5499231022      18.0847092289       1.2642154723 1 1 1
C                 34.0206810662      21.5206028787       1.2638668257 1 1 1
C                 34.2699350278      25.7383929360       1.2628480258 1 1 1
C                 32.8261498167      29.7536004415       1.2612225737 1 1 1
C                 31.1326294655      33.6725946891       1.2612968398 1 1 1
C                 29.6366418976      37.7072175696       1.2619365145 1 1 1
C                 28.3025523458      41.7320900850       1.2577362333 1 1 1
C                 31.0578526967      22.8844538742       2.5023716494 1 1 1
C                 30.1706587879      26.8236742238       2.5012155961 1 1 1
C                 27.0731519168      29.6779710664       2.5010029150 1 1 1
C                 22.9254266139      30.4252461080       2.5013545965 1 1 1
C                 19.1169083343      28.6330375906       2.5015492362 1 1 1
C                 17.0837131643      24.9429119215       2.5020070311 1 1 1
C                 17.5875301789      20.7563371648       2.5015204510 1 1 1
C                 20.2860614131      17.4977412717       2.5008389548 1 1 1
C                 24.2303745373      15.9524360884       2.4991353834 1 1 1
C                 28.4541304424      16.3602757415       2.4979705279 1 1 1
C                 32.0771670442      18.5645650808       2.4978921550 1 1 1
C                 34.2378519933      22.2005610587       2.4968917025 1 1 1
C                 34.1045566694      26.4315148052       2.4964797826 1 1 1
C                 32.5335811885      30.4023614653       2.4949920660 1 1 1
C                 30.8743292688      34.3361525653       2.4919999174 1 1 1
C                 29.3979556806      38.3757882787       2.5045122716 1 1 1
C                 31.3260720589      24.3216703920       2.5022910152 1 1 1
C                 29.2932839742      27.9265410469       2.5009032784 1 1 1
C                 25.7508987932      30.2062919887       2.5011410546 1 1 1
C                 21.5407581687      30.1001903761       2.5010905709 1 1 1
C                 18.1861029515      27.5547448557       2.5020244764 1 1 1
C                 16.9651971033      23.5232546700       2.5019407127 1 1 1
C                 18.2870614688      19.5152871432       2.5013016925 1 1 1
C                 21.5096480906      16.7683148308       2.5001535331 1 1 1
C                 25.6529938491      15.8748807853       2.4987322712 1 1 1
C                 29.7693081391      16.9071179933       2.4980116522 1 1 1
C                 33.0076641087      19.6426688156       2.4974301060 1 1 1
C                 34.4506645108      23.6100592151       2.4965163627 1 1 1
C                 33.6577878692      27.7844939570       2.4956567672 1 1 1
C                 31.9536161418      31.7031851250       2.4948806142 1 1 1
C                 30.3748027540      35.6713976167       2.4880413962 1 1 1
C                 28.8984381576      39.7372455007       2.5369762021 1 1 1
C                 31.0335241238      24.9087186396       3.7429866223 1 1 1
C                 28.7864930621      28.4110875566       3.7457245447 1 1 1
C                 25.0555499655      30.3752084570       3.7340723370 1 1 1
C                 20.8795181216      29.8338153558       3.7358243921 1 1 1
C                 17.8079789890      26.9495026114       3.7363358629 1 1 1
C                 17.0156274178      22.8114252455       3.7359399574 1 1 1
C                 18.7204561325      18.9483993215       3.7352905599 1 1 1
C                 22.1625780045      16.4815517279       3.7342782108 1 1 1
C                 26.3653415228      15.9190427408       3.7327944166 1 1 1
C                 30.3929476004      17.2534130035       3.7323229627 1 1 1
C                 33.4008119624      20.2381449389       3.7313206107 1 1 1
C                 34.4475368608      24.3238238956       3.7310803031 1 1 1
C                 33.3925404515      28.4468446856       3.7299867796 1 1 1
C                 31.6711072749      32.3578691164       3.7288991907 1 1 1
C                 30.1320680840      36.3261109518       3.7190982108 1 1 1
C                 28.6653168912      40.3253820468       3.7781548782 1 1 1
C                 30.4825764052      26.1894721003       3.7490882826 1 1 1
C                 27.6809170509      29.3112400283       3.7395770485 1 1 1
C                 23.6360024112      30.4836616220       3.7344866799 1 1 1
C                 19.6610040569      29.0945727640       3.7361029851 1 1 1
C                 17.2537161287      25.6364806909       3.7361954447 1 1 1
C                 17.3308735006      21.4220127795       3.7358145805 1 1 1
C                 19.7232541743      17.9365092819       3.7350096761 1 1 1
C                 23.5277552604      16.0738612258       3.7336063337 1 1 1
C                 27.7690786662      16.1615010263       3.7324519995 1 1 1
C                 31.5495861799      18.0843747605       3.7321970126 1 1 1
C                 34.0196340358      21.5209213096       3.7309833922 1 1 1
C                 34.2701331254      25.7376024048       3.7309484293 1 1 1
C                 32.8252003177      29.7532297176       3.7299197200 1 1 1
C                 31.1312024313      33.6757324031       3.7279625794 1 1 1
C                 29.6501942481      37.6608195366       3.7121313246 1 1 1
C                 28.2089093596      41.5938722082       4.3364391464 1 1 1
C                 30.7079404667      22.7463434919       3.8920378697 1 1 1
C                 30.0202770083      26.6529421847       4.9962740810 1 1 1
C                 27.0593918182      29.6766235792       4.9675479619 1 1 1
C                 22.9261230558      30.4373504254       4.9680499419 1 1 1
C                 19.1167123244      28.6339210491       4.9698835465 1 1 1
C                 17.0834999517      24.9429780334       4.9697283439 1 1 1
C                 17.5899718274      20.7575384082       4.9697156112 1 1 1
C                 20.2856892234      17.4980249136       4.9689667973 1 1 1
C                 24.2305875079      15.9535546027       4.9673393966 1 1 1
C                 28.4541411272      16.3602288156       4.9663684811 1 1 1
C                 32.0752843253      18.5657886070       4.9658178272 1 1 1
C                 34.2201850906      22.2033195552       4.9651647967 1 1 1
C                 34.0943435577      26.4290051995       4.9639367810 1 1 1
C                 32.5286652755      30.4006111008       4.9632811614 1 1 1
C                 30.8709977101      34.3345207332       4.9632052161 1 1 1
C                 29.4128302661      38.2778910848       4.9630533913 1 1 1
C                 30.8737743226      23.8919642163       4.7850975603 1 1 1
C                 29.2240639055      27.8401708347       4.9857048806 1 1 1
C                 25.7456611217      30.2223003545       4.9677166297 1 1 1
C                 21.5393058969      30.1062866009       4.9686799506 1 1 1
C                 18.1846748362      27.5553527560       4.9702290813 1 1 1
C                 16.9638297760      23.5230178836       4.9696913340 1 1 1
C                 18.2891305406      19.5163154724       4.9694182997 1 1 1
C                 21.5096086423      16.7686016385       4.9683373104 1 1 1
C                 25.6533785707      15.8767798013       4.9669428455 1 1 1
C                 29.7699075412      16.9066888755       4.9663028379 1 1 1
C                 33.0041649686      19.6454743873       4.9652735205 1 1 1
C                 34.4317334510      23.6121593727       4.9649269903 1 1 1
C                 33.6522735321      27.7838666762       4.9635218827 1 1 1
C                 31.9494492583      31.7034209218       4.9633859353 1 1 1
C                 30.3662568428      35.6638504975       4.9628917198 1 1 1
C                 28.9359850327      39.5675735472       4.9636683322 1 1 1
C                 30.6780436907      24.4340398169       6.2044825172 1 1 1
C                 28.7265682590      28.3694909208       6.2033030816 1 1 1
C                 25.0545777775      30.3894241387       6.2033731633 1 1 1
C                 20.8798066292      29.8348933783       6.2034246025 1 1 1
C                 17.8080842493      26.9483427579       6.2042719747 1 1 1
C                 17.0158105803      22.8113677776       6.2038797470 1 1 1
C                 18.7207686847      18.9487368372       6.2036212654 1 1 1
C                 22.1627180049      16.4820810901       6.2021483258 1 1 1
C                 26.3651174646      15.9203890170       6.2008948800 1 1 1
C                 30.3921667086      17.2551573497       6.2002305189 1 1 1
C                 33.3948598374      20.2397032387       6.1996733889 1 1 1
C                 34.4288717757      24.3237554076       6.1989118198 1 1 1
C                 33.3868343055      28.4442413974       6.1975060675 1 1 1
C                 31.6679179865      32.3564148928       6.1978936185 1 1 1
C                 30.1206882191      36.3211315638       6.2074204907 1 1 1
C                 28.6611447895      40.3223909719       6.1505137121 1 1 1
C                 30.2831692528      25.8788370102       6.2037151857 1 1 1
C                 27.6574932560      29.3010355225       6.2034299448 1 1 1
C                 23.6356612127      30.4988292265       6.2033885212 1 1 1
C                 19.6626404390      29.0939815491       6.2038336942 1 1 1
C                 17.2556036453      25.6352322973       6.2040680496 1 1 1
C                 17.3316430481      21.4224041345       6.2038610624 1 1 1
C                 19.7232646104      17.9368550819       6.2032281124 1 1 1
C                 23.5276627025      16.0738874718       6.2014827093 1 1 1
C                 27.7685311162      16.1635812858       6.2004980944 1 1 1
C                 31.5483725121      18.0863249926       6.1999965059 1 1 1
C                 34.0063046476      21.5247861284       6.1995703805 1 1 1
C                 34.2535832032      25.7361910441       6.1984679701 1 1 1
C                 32.8205894595      29.7508529277       6.1967074649 1 1 1
C                 31.1289126406      33.6754080993       6.1990783972 1 1 1
C                 29.6362037242      37.6551029244       6.2145377941 1 1 1
C                 28.2042406234      41.5932336716       5.5987387912 1 1 1
Al                27.5757503612      33.5590689470       2.4210701362 0 0 0
Cl                28.5309969943      32.6973842870       0.6717536085 1 1 1
Cl                27.7749073108      35.7049113294       2.4010563463 1 1 1
Cl                28.5626328234      32.6957305732       4.1515200147 1 1 1
Cl                25.4661766047      33.0812024278       2.4562013551 1 1 1
