&CONTROL
    restart_mode = 'restart'
    calculation = 'relax'
    prefix = 'ns'
    pseudo_dir = '/home/tomas.rojas_s/pseudo/'
    outdir = '/scratch/global/tomas.rojas_s/ns/c2/out'
    nstep = 200
    etot_conv_thr = 1.0D-4
    forc_conv_thr = 5.0D-3
/
&SYSTEM
    ibrav = 0
    nat = 197
    ntyp = 3
    ecutwfc = 45.0
    ecutrho = 360.0
    occupations = 'smearing'
    smearing = 'mp'
    degauss = 0.02
    vdw_corr = 'dft-d3'
/
&ELECTRONS
    conv_thr = 1.0D-8
    mixing_mode = 'local-TF'
    mixing_beta = 0.7
/
&IONS
/
&CELL
/

ATOMIC_SPECIES
C 12.011 C.pbe-n-kjpaw_psl.1.0.0.UPF
Al 26.9815385 Al.pbe-n-kjpaw_psl.1.0.0.UPF
Cl 35.45 Cl.pbe-n-kjpaw_psl.1.0.0.UPF

K_POINTS automatic
1 1 3 0 0 0

CELL_PARAMETERS angstrom
50.00000000000000 0.00000000000000 0.00000000000000
0.00000000000000 50.00000000000000 0.00000000000000
0.00000000000000 0.00000000000000 7.40451720000000

ATOMIC_POSITIONS angstrom
C                 31.6165079574      24.4148467896       0.0551919803 1 1 1
C                 28.2105152270      26.9204984132       0.0479501272 1 1 1
C                 24.2626771391      28.6070508115       0.0486434431 1 1 1
C                 20.0213279728      28.8945464115       0.0471983899 1 1 1
C                 16.1951557510      27.1104839987       0.0462521733 1 1 1
C                 14.3602450806      23.3414696601       0.0429713727 1 1 1
C                 15.7168935257      19.3950738163       0.0384635870 1 1 1
C                 19.3943705992      17.3562623856       0.0367835500 1 1 1
C                 23.6403434783      17.4933274178       0.0395622219 1 1 1
C                 27.7520105057      18.6270595559       0.0457434834 1 1 1
C                 31.6389512316      20.3733818099       0.0507023850 1 1 1
C                 34.9218058992      23.0566935653       0.0560647184 1 1 1
C                 36.9434584023      26.7722953019       0.0599226480 1 1 1
C                 37.0832658492      31.0007924410       0.0657460343 1 1 1
C                 35.4430828687      34.9037629756       0.0668566331 1 1 1
C                 32.5041538503      38.0267396301       0.0853259918 1 1 1
C                 30.6297133611      25.3221633487       0.0486124447 1 1 1
C                 26.9485319976      27.6046996068       0.0481821034 1 1 1
C                 22.8641281539      28.8744367459       0.0482878454 1 1 1
C                 18.6344570560      28.5570199165       0.0464901541 1 1 1
C                 15.2777920699      26.0184626130       0.0456138287 1 1 1
C                 14.4466574891      21.9191604816       0.0409634679 1 1 1
C                 16.7764499868      18.4423545657       0.0378904287 1 1 1
C                 20.8116809787      17.2140631908       0.0366566796 1 1 1
C                 25.0262612710      17.8095215669       0.0421021169 1 1 1
C                 29.0856901741      19.1244037748       0.0474074366 1 1 1
C                 32.8265759663      21.1525640899       0.0533182684 1 1 1
C                 35.7777030305      24.1894379742       0.0575630847 1 1 1
C                 37.2020365982      28.1701795695       0.0618686665 1 1 1
C                 36.7214670182      32.3761210981       0.0672464298 1 1 1
C                 34.5731254960      36.0320853765       0.0659240615 1 1 1
C                 31.3768971954      38.9365354085       0.1204253716 1 1 1
C                 30.0382985648      25.7792301677       1.3230620965 1 1 1
C                 26.2880171133      27.9175450445       1.2752547004 1 1 1
C                 22.1572865416      28.9489434810       1.2825259248 1 1 1
C                 17.9718929507      28.2925342217       1.2806868929 1 1 1
C                 14.9232481432      25.3973666828       1.2787000914 1 1 1
C                 14.6332037939      21.2300853692       1.2744514147 1 1 1
C                 17.3831661773      18.0670317069       1.2713733748 1 1 1
C                 21.5241047106      17.2261434854       1.2715049489 1 1 1
C                 25.7137733321      17.9923417770       1.2769861979 1 1 1
C                 29.7407497030      19.4015434959       1.2826603836 1 1 1
C                 33.3902323919      21.5837997672       1.2878432863 1 1 1
C                 36.1463951699      24.7982301303       1.2919613671 1 1 1
C                 37.2446528458      28.8792077354       1.2967287311 1 1 1
C                 36.4678398265      33.0401564359       1.3009213838 1 1 1
C                 34.1090870803      36.5560513077       1.2960086306 1 1 1
C                 30.8793174989      39.3273238394       1.3617543628 1 1 1
C                 28.8147748809      26.5542330555       1.2906136978 1 1 1
C                 24.9515490428      28.4167684747       1.2798967861 1 1 1
C                 20.7316140247      28.9656767382       1.2817378099 1 1 1
C                 16.7435630007      27.5674270930       1.2809447631 1 1 1
C                 14.4586536382      24.0495030729       1.2772397739 1 1 1
C                 15.2785764012      19.9597501442       1.2725936316 1 1 1
C                 18.6996419170      17.5222362290       1.2709084430 1 1 1
C                 22.9393157773      17.3698405116       1.2730980326 1 1 1
C                 27.0762596422      18.4024132596       1.2792963931 1 1 1
C                 31.0182441298      20.0277303816       1.2846751755 1 1 1
C                 34.4447561655      22.5335673912       1.2898347058 1 1 1
C                 36.7296262623      26.0944337941       1.2941577462 1 1 1
C                 37.1878230828      30.2992194232       1.2987101679 1 1 1
C                 35.8236307396      34.3092851409       1.3016328459 1 1 1
C                 33.0893339723      37.5436712765       1.2917770603 1 1 1
C                 29.8155730073      40.1540903671       1.9183898967 1 1 1
C                 31.6973452296      24.7015616161       3.1149046153 1 1 1
C                 28.1731496809      26.9569460839       2.4992672017 1 1 1
C                 24.2697769447      28.6153000743       2.5154246572 1 1 1
C                 20.0229461670      28.8939638377       2.5160847985 1 1 1
C                 16.1982859312      27.1048636038       2.5144344434 1 1 1
C                 14.3575847529      23.3424320130       2.5114276367 1 1 1
C                 15.7177204482      19.3972755705       2.5063784078 1 1 1
C                 19.3929170413      17.3574622482       2.5051635914 1 1 1
C                 23.6399597982      17.4916177976       2.5079502330 1 1 1
C                 27.7502623415      18.6309303575       2.5140204783 1 1 1
C                 31.6376917716      20.3774992858       2.5193496298 1 1 1
C                 34.9337871147      23.0486895263       2.5239113818 1 1 1
C                 36.9333160956      26.7745376774       2.5283804646 1 1 1
C                 37.0869708638      31.0024699042       2.5321284839 1 1 1
C                 35.4397851602      34.9056553830       2.5374341734 1 1 1
C                 32.5911910892      37.9800025439       2.5433510609 1 1 1
C                 30.5853162194      25.4676671689       2.5633389952 1 1 1
C                 26.9276236413      27.6358264413       2.5065758248 1 1 1
C                 22.8681064558      28.8778531184       2.5155190216 1 1 1
C                 18.6364513223      28.5559491308       2.5151216057 1 1 1
C                 15.2762414787      26.0179866335       2.5132526690 1 1 1
C                 14.4450404051      21.9197001301       2.5091787296 1 1 1
C                 16.7787364498      18.4474087926       2.5057379788 1 1 1
C                 20.8111269557      17.2182499243       2.5047188914 1 1 1
C                 25.0262541821      17.8067349858       2.5104485976 1 1 1
C                 29.0845416715      19.1269559576       2.5159985382 1 1 1
C                 32.8303001788      21.1514362137       2.5217798044 1 1 1
C                 35.7850446594      24.1882207370       2.5250337748 1 1 1
C                 37.1937841271      28.1727762137       2.5307511653 1 1 1
C                 36.7242391542      32.3782836032       2.5334467711 1 1 1
C                 34.5778645179      36.0336041305       2.5397305693 1 1 1
C                 31.5178888250      38.8377703910       2.5465412381 1 1 1
C                 29.9291985098      25.9274582403       3.7504973714 1 1 1
C                 26.2955238548      27.9487642154       3.7507802673 1 1 1
C                 22.1602271373      28.9568258029       3.7504542651 1 1 1
C                 17.9750408968      28.2853833808       3.7487576075 1 1 1
C                 14.9158040928      25.4006863746       3.7471533100 1 1 1
C                 14.6347340266      21.2311388279       3.7426688217 1 1 1
C                 17.3818302768      18.0666267025       3.7397419000 1 1 1
C                 21.5237233406      17.2296430579       3.7392199439 1 1 1
C                 25.7120526743      17.9963941870       3.7452532923 1 1 1
C                 29.7396894275      19.4046119990       3.7503949381 1 1 1
C                 33.4001774838      21.5763731858       3.7559750612 1 1 1
C                 36.1433660336      24.8009213425       3.7599425669 1 1 1
C                 37.2459396672      28.8807443621       3.7647269464 1 1 1
C                 36.4704127313      33.0410433959       3.7679474307 1 1 1
C                 34.1059462205      36.5522005853       3.7861276524 1 1 1
C                 30.8819269657      39.3296575397       3.7315863454 1 1 1
C                 28.7544795903      26.6394957736       3.7501738084 1 1 1
C                 24.9580764942      28.4360752125       3.7513675499 1 1 1
C                 20.7339942730      28.9683718512       3.7497268542 1 1 1
C                 16.7479629194      27.5589932294       3.7487886417 1 1 1
C                 14.4537809258      24.0513617732       3.7456157674 1 1 1
C                 15.2794767357      19.9604299686       3.7410191394 1 1 1
C                 18.6980688734      17.5211014305       3.7392420564 1 1 1
C                 22.9386251066      17.3703888777       3.7410238814 1 1 1
C                 27.0733387962      18.4108428386       3.7473201929 1 1 1
C                 31.0190671706      20.0271897045       3.7522914285 1 1 1
C                 34.4568760584      22.5247558799       3.7578038768 1 1 1
C                 36.7190582722      26.0994518223       3.7614182647 1 1 1
C                 37.1938812192      30.3020724983       3.7654485941 1 1 1
C                 35.8239848316      34.3095878433       3.7713085572 1 1 1
C                 33.0865520167      37.5385096466       3.7940268854 1 1 1
C                 29.8214276327      40.1686743753       3.1849753926 1 1 1
C                 31.7119828115      24.7122321998       4.3818875855 1 1 1
C                 28.1865089906      26.9784214736       5.0012095999 1 1 1
C                 24.2716376197      28.6221992426       4.9866307311 1 1 1
C                 20.0231972479      28.8951570639       4.9829713042 1 1 1
C                 16.1971622646      27.1049091073       4.9822714942 1 1 1
C                 14.3593680062      23.3430602159       4.9790310267 1 1 1
C                 15.7185117226      19.3970632817       4.9745720836 1 1 1
C                 19.3932313523      17.3587530085       4.9732407701 1 1 1
C                 23.6396075915      17.4920825544       4.9756311119 1 1 1
C                 27.7491884323      18.6341519616       4.9822083022 1 1 1
C                 31.6413331381      20.3721895539       4.9868406300 1 1 1
C                 34.9312105598      23.0510089870       4.9933682437 1 1 1
C                 36.9320734099      26.7760153735       4.9974912714 1 1 1
C                 37.0853645323      31.0026063366       5.0006054064 1 1 1
C                 35.4422497548      34.9024271446       5.0085527095 1 1 1
C                 32.5007183734      38.0186159018       5.0019945179 1 1 1
C                 30.6029572624      25.4850859260       4.9359227178 1 1 1
C                 26.9350207905      27.6505856679       4.9951019973 1 1 1
C                 22.8691644973      28.8839147139       4.9856828057 1 1 1
C                 18.6379069878      28.5528104184       4.9826311988 1 1 1
C                 15.2725876130      26.0198837438       4.9819679454 1 1 1
C                 14.4496839548      21.9208968775       4.9773387156 1 1 1
C                 16.7769383229      18.4443382934       4.9741982127 1 1 1
C                 20.8113149200      17.2192171874       4.9734549068 1 1 1
C                 25.0250936025      17.8108288152       4.9781631097 1 1 1
C                 29.0840996611      19.1282251492       4.9837665506 1 1 1
C                 32.8330278699      21.1468612837       4.9896393788 1 1 1
C                 35.7796653573      24.1904497142       4.9946080147 1 1 1
C                 37.1973643968      28.1725982316       4.9987018384 1 1 1
C                 36.7237442925      32.3779903594       5.0020550972 1 1 1
C                 34.5686439341      36.0281179255       5.0147604492 1 1 1
C                 31.3762260988      38.9326394723       4.9716995710 1 1 1
C                 30.0557793167      25.7986793219       6.1778360377 1 1 1
C                 26.2924307180      27.9279733971       6.2257273793 1 1 1
C                 22.1579930106      28.9545386011       6.2183357530 1 1 1
C                 17.9737967286      28.2878615934       6.2164944405 1 1 1
C                 14.9205903490      25.3990487105       6.2161517093 1 1 1
C                 14.6387673679      21.2318988781       6.2108089311 1 1 1
C                 17.3815502889      18.0643824188       6.2083708984 1 1 1
C                 21.5242663165      17.2253232630       6.2073047784 1 1 1
C                 25.7123721503      17.9972355929       6.2133942867 1 1 1
C                 29.7413984397      19.4008376248       6.2185250167 1 1 1
C                 33.3925630192      21.5803530561       6.2248415610 1 1 1
C                 36.1409246652      24.7995119487       6.2287138640 1 1 1
C                 37.2496881570      28.8792402766       6.2338374797 1 1 1
C                 36.4709348511      33.0368721833       6.2379055088 1 1 1
C                 34.0730968134      36.5644581785       6.2434716666 1 1 1
C                 30.7976737971      39.3965169707       6.2476418086 1 1 1
C                 28.8316715789      26.5767119408       6.2097458225 1 1 1
C                 24.9537670963      28.4240791012       6.2224864866 1 1 1
C                 20.7317694913      28.9685759984       6.2176061271 1 1 1
C                 16.7444765691      27.5648767706       6.2163605447 1 1 1
C                 14.4590779367      24.0500818964       6.2143832353 1 1 1
C                 15.2820180940      19.9610488405       6.2093596859 1 1 1
C                 18.6993432442      17.5222549534       6.2075554693 1 1 1
C                 22.9394649331      17.3686178589       6.2092299610 1 1 1
C                 27.0751500505      18.4063407128       6.2152275944 1 1 1
C                 31.0213121053      20.0230067823       6.2200683951 1 1 1
C                 34.4447090643      22.5341046574       6.2269157816 1 1 1
C                 36.7265517981      26.0960739547       6.2305598725 1 1 1
C                 37.1897565451      30.3013549896       6.2353778417 1 1 1
C                 35.8260444206      34.3035141280       6.2392917600 1 1 1
C                 33.0340347161      37.5529265090       6.2454809072 1 1 1
C                 29.7629031501      40.2498988149       6.2511737853 1 1 1
Al                32.8030108303      29.1499019211       1.7071251412 1 1 1
Cl                33.6689232610      31.1606155746       1.3929338212 1 1 1
Cl                33.4350930970      28.3404700427       3.5734560585 1 1 1
Cl                33.5464999410      27.8274313520       0.1393847472 1 1 1
Cl                30.6765498365      29.2449699151       1.6607296124 1 1 1
