&CONTROL
    restart_mode = 'from_scratch'
    calculation = 'relax'
    prefix = 'ns'
    pseudo_dir = '/home/tomas.rojas_s/pseudo/'
    outdir = '/scratch/global/tomas.rojas_s/ns/axial_extraction/step_2/out'
    nstep = 200
    etot_conv_thr = 1.0D-4
    forc_conv_thr = 1.0D-3
/
&SYSTEM
    ibrav = 0
    nat = 197
    ntyp = 3
    ecutwfc = 45.0
    ecutrho = 360.0
    occupations = 'smearing'
    smearing = 'mp'
    degauss = 0.02
    vdw_corr = 'dft-d3'
/
&ELECTRONS
    conv_thr = 1.0D-8
    mixing_mode = 'local-TF'
    mixing_beta = 0.7
/
&IONS
/
&CELL
/

ATOMIC_SPECIES
C 12.011 C.pbe-n-kjpaw_psl.1.0.0.UPF
Al 26.9815385 Al.pbe-n-kjpaw_psl.1.0.0.UPF
Cl 35.45 Cl.pbe-n-kjpaw_psl.1.0.0.UPF

K_POINTS automatic
1 1 1 0 0 0

CELL_PARAMETERS angstrom
50.0 0.0 0.0
0.0 50.0 0.0
0.0 0.0 25.0
ATOMIC_POSITIONS angstrom
C                 30.8598009005      22.8099580857       9.7155839961 1 1 1
C                 30.0212360329      26.6530453946       8.8107029646 0 0 0
C                 27.0578303271      29.6743545915       8.8345959669 0 0 0
C                 22.9263832189      30.4366270367       8.8342371156 0 0 0
C                 19.1170949895      28.6327817539       8.8333767104 0 0 0
C                 17.0843898532      24.9425714516       8.8337663578 0 0 0
C                 17.5887773088      20.7571135460       8.8336293746 0 0 0
C                 20.2856327727      17.4977504215       8.8326575070 0 0 0
C                 24.2302699409      15.9523962864       8.8311496717 0 0 0
C                 28.4535641196      16.3623806894       8.8302142997 0 0 0
C                 32.0754400384      18.5658035462       8.8302267772 0 0 0
C                 34.2209335447      22.2038862261       8.8297912289 0 0 0
C                 34.0937464380      26.4295522581       8.8292196698 0 0 0
C                 32.5296204753      30.4003089760       8.8270653409 0 0 0
C                 30.8718585391      34.3351207914       8.8307891589 0 0 0
C                 29.3855198676      38.3698664414       8.8236131900 0 0 0
C                 30.8749481523      23.8918715847       9.0193138097 0 0 0
C                 29.2240523079      27.8397739570       8.8207990334 0 0 0
C                 25.7443761652      30.2199193993       8.8347887376 0 0 0
C                 21.5400984791      30.1045386606       8.8334276651 0 0 0
C                 18.1853100461      27.5542108410       8.8339359242 0 0 0
C                 16.9644181775      23.5227944629       8.8338118900 0 0 0
C                 18.2880079219      19.5158141734       8.8334716424 0 0 0
C                 21.5095030150      16.7684189204       8.8319934329 0 0 0
C                 25.6528385727      15.8758418866       8.8307367686 0 0 0
C                 29.7688107030      16.9087257366       8.8302399153 0 0 0
C                 33.0045655007      19.6444235098       8.8301189366 0 0 0
C                 34.4333149137      23.6118745408       8.8295996550 0 0 0
C                 33.6520552322      27.7832410993       8.8284059532 0 0 0
C                 31.9503396435      31.7016745042       8.8273852759 0 0 0
C                 30.3670919674      35.6686730547       8.8348515071 0 0 0
C                 28.8909843070      39.7332442584       8.7910506788 0 0 0
C                 31.2651891907      24.9457460058       9.8917490455 1 1 1
C                 28.8214109312      28.4537690845       9.9802505362 1 1 1
C                 25.0614819912      30.4782667692       9.9991266060 1 1 1
C                 20.8199214906      29.9240036894       9.9909810482 1 1 1
C                 17.7095150634      26.9871868455       9.9938679464 1 1 1
C                 16.9160055694      22.7879680260       9.9963338093 1 1 1
C                 18.6501149734      18.8775737303       9.9978202731 1 1 1
C                 22.1390588807      16.3937890448       9.9975507752 1 1 1
C                 26.3858448433      15.8292530484       9.9957591025 1 1 1
C                 30.4502893655      17.1877259742       9.9947558523 1 1 1
C                 33.5024914067      20.1966593246       9.9893132668 1 1 1
C                 34.5918817177      24.3335411546       9.9865806953 1 1 1
C                 33.4215713918      28.4609643806      10.0011548683 1 1 1
C                 31.6474728691      32.3641019535       9.9968938020 1 1 1
C                 30.1057106486      36.3552879509      10.0021412561 1 1 1
C                 28.6406804685      40.5021684741       9.9613668826 1 1 1
C                 30.7508531496      26.2510342016       9.8961842948 1 1 1
C                 27.7411566444      29.3633914813       9.9877443777 1 1 1
C                 23.6509035310      30.5896026718       9.9945843903 1 1 1
C                 19.6090755996      29.1906643953       9.9910315551 1 1 1
C                 17.1598687401      25.6819709348       9.9934733000 1 1 1
C                 17.2294460640      21.4072694307       9.9948687020 1 1 1
C                 19.6463658963      17.8726225366       9.9954632410 1 1 1
C                 23.4939594492      15.9892897856       9.9957255205 1 1 1
C                 27.7783212192      16.0713227181       9.9952402938 1 1 1
C                 31.5997705499      18.0091822632       9.9956198889 1 1 1
C                 34.1192600459      21.4696394310       9.9883418391 1 1 1
C                 34.4047956930      25.7374285198       9.9829544649 1 1 1
C                 32.8432442829      29.7462608493       9.9977919589 1 1 1
C                 31.1197407694      33.6649696121      10.0037477883 1 1 1
C                 29.6228831257      37.6721394590       9.9935071957 1 1 1
C                 28.1962100154      41.8256379445      10.0443934133 1 1 1
C                 31.1936364157      22.8366120393      11.1206541241 1 1 1
C                 30.4004653883      26.9161777620      11.1551899708 1 1 1
C                 27.1235894394      29.7750451673      11.2185696507 1 1 1
C                 22.8985268569      30.5433777022      11.2181415961 1 1 1
C                 19.0199968507      28.7179369077      11.2163222542 1 1 1
C                 16.9622193606      24.9569440430      11.2196990762 1 1 1
C                 17.4810617241      20.7026919577      11.2220369922 1 1 1
C                 20.2208345859      17.3963440236      11.2228011156 1 1 1
C                 24.2251614152      15.8391035514      11.2225828264 1 1 1
C                 28.5024699188      16.2583581814      11.2218430283 1 1 1
C                 32.1763251714      18.4934075905      11.2188659072 1 1 1
C                 34.3899794422      22.1729052580      11.2120527069 1 1 1
C                 34.2347448550      26.4520075013      11.2165447236 1 1 1
C                 32.5264939013      30.4141519056      11.2248021675 1 1 1
C                 30.8498122015      34.3562770851      11.2365482680 1 1 1
C                 29.3806215948      38.3768448381      11.2240284689 1 1 1
C                 31.5586717644      24.3129103934      11.1206976394 1 1 1
C                 29.4553478018      27.9797955059      11.1874455772 1 1 1
C                 25.8062816737      30.3097853271      11.2234822680 1 1 1
C                 21.5148668531      30.2238927120      11.2158933277 1 1 1
C                 18.0920299550      27.6405778789      11.2176547452 1 1 1
C                 16.8438291914      23.5406321334      11.2206558674 1 1 1
C                 18.1763410715      19.4646174606      11.2226045882 1 1 1
C                 21.4412703996      16.6731871142      11.2232160494 1 1 1
C                 25.6404441655      15.7604425402      11.2223581159 1 1 1
C                 29.8096796528      16.8047037827      11.2216422946 1 1 1
C                 33.1095525303      19.5607711866      11.2162431113 1 1 1
C                 34.6202458843      23.5751250949      11.2113287583 1 1 1
C                 33.7450830010      27.7781901420      11.2212547926 1 1 1
C                 31.9371836370      31.6912423035      11.2268426330 1 1 1
C                 30.3561970428      35.6698564427      11.2401359268 1 1 1
C                 28.9058580238      39.7167553096      11.1896522427 1 1 1
C                 31.1572695958      24.8977522334      12.3118867441 1 1 1
C                 28.9165413281      28.4777209967      12.4262320412 1 1 1
C                 25.0833952724      30.4932064457      12.4438700588 1 1 1
C                 20.8186719338      29.9526668934      12.4388564688 1 1 1
C                 17.6904556120      27.0130759672      12.4429700342 1 1 1
C                 16.8856078123      22.7992753046      12.4465257075 1 1 1
C                 18.6152285273      18.8675359178      12.4487461437 1 1 1
C                 22.1161815220      16.3668844479      12.4488824089 1 1 1
C                 26.3816251800      15.7943076531      12.4480552337 1 1 1
C                 30.4658669868      17.1572677439      12.4461283409 1 1 1
C                 33.5343654569      20.1746683138      12.4393016205 1 1 1
C                 34.6239553145      24.3116955242      12.4401611208 1 1 1
C                 33.4539451376      28.4524365317      12.4481512334 1 1 1
C                 31.6406224829      32.3682381927      12.4543914633 1 1 1
C                 30.0972115494      36.3707513477      12.4685518712 1 1 1
C                 28.6571582588      40.3619905551      12.3696240338 1 1 1
C                 30.6639951969      26.2073292253      12.3812219185 1 1 1
C                 27.7804372024      29.3843248085      12.4326240028 1 1 1
C                 23.6444067071      30.6092114375      12.4399970497 1 1 1
C                 19.5858163810      29.2077686291      12.4403883535 1 1 1
C                 17.1312923157      25.6858310340      12.4441639398 1 1 1
C                 17.2014873884      21.3963176772      12.4467411374 1 1 1
C                 19.6254836336      17.8456998014      12.4483453698 1 1 1
C                 23.4903938402      15.9555823241      12.4482575513 1 1 1
C                 27.7935802319      16.0403267311      12.4478717988 1 1 1
C                 31.6330838386      17.9898304176      12.4451745873 1 1 1
C                 34.1692972772      21.4604832129      12.4371220988 1 1 1
C                 34.4269028415      25.7294766590      12.4418823377 1 1 1
C                 32.8454393590      29.7400052351      12.4455790193 1 1 1
C                 31.1085152523      33.6807604157      12.4669598544 1 1 1
C                 29.6159759066      37.7154968824      12.4640316595 1 1 1
C                 28.1798918522      41.7530814712      12.4344709774 1 1 1
C                 30.7236091619      22.6294040009      12.3880561316 1 1 1
C                 30.1064490948      26.6529081768      13.6358650735 1 1 1
C                 27.1316414611      29.7854508534      13.6624044982 1 1 1
C                 22.8903058979      30.6005876348      13.6679895839 1 1 1
C                 18.9889493186      28.7486579497      13.6717169493 1 1 1
C                 16.9172719281      24.9647009058      13.6753061293 1 1 1
C                 17.4421872365      20.6848170322      13.6775200751 1 1 1
C                 20.1994917642      17.3638741190      13.6787140867 1 1 1
C                 24.2243752400      15.8021537566      13.6777384912 1 1 1
C                 28.5205846699      16.2290161304      13.6772352703 1 1 1
C                 32.2062963309      18.4765512904      13.6731437649 1 1 1
C                 34.4100806561      22.1664938357      13.6678020626 1 1 1
C                 34.2304555582      26.4474556039      13.6735754281 1 1 1
C                 32.5147793925      30.4077212395      13.6722973818 1 1 1
C                 30.8329431246      34.3733736625      13.7034901664 1 1 1
C                 29.3367467147      38.4466987979      13.7312364548 1 1 1
C                 30.8313936467      23.7940527449      13.2276262923 1 1 1
C                 29.3728932025      27.8635199315      13.6679181929 1 1 1
C                 25.8250881533      30.3553606065      13.6726592007 1 1 1
C                 21.5085203768      30.2717608115      13.6674346948 1 1 1
C                 18.0612114918      27.6738441953      13.6723164498 1 1 1
C                 16.7985866787      23.5508225525      13.6759328905 1 1 1
C                 18.1375133105      19.4505471992      13.6783627169 1 1 1
C                 21.4167590604      16.6433201592      13.6787888221 1 1 1
C                 25.6344781622      15.7245096424      13.6776633718 1 1 1
C                 29.8235151137      16.7731086914      13.6765840359 1 1 1
C                 33.1333960374      19.5407305379      13.6700554139 1 1 1
C                 34.6226924156      23.5611239727      13.6687181492 1 1 1
C                 33.7484154995      27.7677114925      13.6766386329 1 1 1
C                 31.9282533911      31.6779005960      13.6770233636 1 1 1
C                 30.3432752308      35.6754969803      13.7031463361 1 1 1
C                 28.8617875333      39.7526184474      13.6616689817 1 1 1
C                 30.4368908694      24.4122867982      14.4138176145 1 1 1
C                 28.7716004630      28.4695574669      14.7706060701 1 1 1
C                 24.9999402005      30.5887255859      14.7668548644 1 1 1
C                 20.7117698807      29.9515973641      14.7638366117 1 1 1
C                 17.6022957382      26.9449971594      14.7706001334 1 1 1
C                 16.8554129545      22.6914678292      14.7770974293 1 1 1
C                 18.6531918331      18.7687862738      14.7818154973 1 1 1
C                 22.2012292075      16.3026180786      14.7844217252 1 1 1
C                 26.4859309084      15.7785809981      14.7851287018 1 1 1
C                 30.5684865371      17.1907031784      14.7824452906 1 1 1
C                 33.5980431580      20.2555171480      14.7769256152 1 1 1
C                 34.5874088913      24.4023923980      14.7810018980 1 1 1
C                 33.3960120712      28.5321907016      14.7920175580 1 1 1
C                 31.5995638480      32.4310946165      14.8014139007 1 1 1
C                 30.0421662031      36.4720238925      14.8204403035 1 1 1
C                 28.4960953567      40.7956384385      14.6535418777 1 1 1
C                 30.2209340432      25.6432472006      14.6205763025 1 1 1
C                 27.8424813084      29.2963448277      14.7568212341 1 1 1
C                 23.7427094479      30.6941174306      14.7637040800 1 1 1
C                 19.6399432871      29.3037591630      14.7700543803 1 1 1
C                 17.1185102645      25.7994655309      14.7754090778 1 1 1
C                 17.1292525771      21.4856175847      14.7801598320 1 1 1
C                 19.5254784181      17.8884230021      14.7832866806 1 1 1
C                 23.3838384717      15.9498385798      14.7848584913 1 1 1
C                 27.7006298000      15.9915550205      14.7844434940 1 1 1
C                 31.5731190117      17.9086309918      14.7822662618 1 1 1
C                 34.1374245124      21.3652278583      14.7794435342 1 1 1
C                 34.4116159483      25.6250546823      14.7876592952 1 1 1
C                 32.8695708325      29.6450058376      14.7867254542 1 1 1
C                 31.1339223388      33.5808303816      14.8115323555 1 1 1
C                 29.6220027909      37.6360563307      14.8358635472 1 1 1
C                 28.1592467976      41.7340013066      13.8041541024 1 1 1
Al                26.5757503612      34.0590689470      12.2210701362 0 0 0
Cl                27.5355099288      33.2039815720      10.4891240210 1 1 1
Cl                26.7993307871      36.2067325269      12.2560480022 1 1 1
Cl                27.5770459768      33.2283695792      13.9677396451 1 1 1
Cl                24.4699165958      33.6125142253      12.2774651167 1 1 1
