&CONTROL
    restart_mode = 'restart'
    calculation = 'relax'
    prefix = 'ns'
    pseudo_dir = '/home/tomas.rojas_s/pseudo/'
    outdir = '/scratch/global/tomas.rojas_s/ns/axial_extraction/step_6/out'
    nstep = 200
    etot_conv_thr = 1.0D-4
    forc_conv_thr = 1.0D-3
/
&SYSTEM
    ibrav = 0
    nat = 197
    ntyp = 3
    ecutwfc = 45.0
    ecutrho = 360.0
    occupations = 'smearing'
    smearing = 'mp'
    degauss = 0.02
    vdw_corr = 'dft-d3'
/
&ELECTRONS
    conv_thr = 1.0D-8
    mixing_mode = 'local-TF'
    mixing_beta = 0.7
/
&IONS
/
&CELL
/

ATOMIC_SPECIES
C 12.011 C.pbe-n-kjpaw_psl.1.0.0.UPF
Al 26.9815385 Al.pbe-n-kjpaw_psl.1.0.0.UPF
Cl 35.45 Cl.pbe-n-kjpaw_psl.1.0.0.UPF

K_POINTS automatic
1 1 1 0 0 0

CELL_PARAMETERS angstrom
50.0 0.0 0.0
0.0 50.0 0.0
0.0 0.0 25.0
ATOMIC_POSITIONS angstrom
C                 30.9101866653      22.8320766801       9.7554695584 1 1 1
C                 30.0212360329      26.6530453946       8.8107029646 0 0 0
C                 27.0578303271      29.6743545915       8.8345959669 0 0 0
C                 22.9263832189      30.4366270367       8.8342371156 0 0 0
C                 19.1170949895      28.6327817539       8.8333767104 0 0 0
C                 17.0843898532      24.9425714516       8.8337663578 0 0 0
C                 17.5887773088      20.7571135460       8.8336293746 0 0 0
C                 20.2856327727      17.4977504215       8.8326575070 0 0 0
C                 24.2302699409      15.9523962864       8.8311496717 0 0 0
C                 28.4535641196      16.3623806894       8.8302142997 0 0 0
C                 32.0754400384      18.5658035462       8.8302267772 0 0 0
C                 34.2209335447      22.2038862261       8.8297912289 0 0 0
C                 34.0937464380      26.4295522581       8.8292196698 0 0 0
C                 32.5296204753      30.4003089760       8.8270653409 0 0 0
C                 30.8718585391      34.3351207914       8.8307891589 0 0 0
C                 29.3855198676      38.3698664414       8.8236131900 0 0 0
C                 30.8749481523      23.8918715847       9.0193138097 0 0 0
C                 29.2240523079      27.8397739570       8.8207990334 0 0 0
C                 25.7443761652      30.2199193993       8.8347887376 0 0 0
C                 21.5400984791      30.1045386606       8.8334276651 0 0 0
C                 18.1853100461      27.5542108410       8.8339359242 0 0 0
C                 16.9644181775      23.5227944629       8.8338118900 0 0 0
C                 18.2880079219      19.5158141734       8.8334716424 0 0 0
C                 21.5095030150      16.7684189204       8.8319934329 0 0 0
C                 25.6528385727      15.8758418866       8.8307367686 0 0 0
C                 29.7688107030      16.9087257366       8.8302399153 0 0 0
C                 33.0045655007      19.6444235098       8.8301189366 0 0 0
C                 34.4333149137      23.6118745408       8.8295996550 0 0 0
C                 33.6520552322      27.7832410993       8.8284059532 0 0 0
C                 31.9503396435      31.7016745042       8.8273852759 0 0 0
C                 30.3670919674      35.6686730547       8.8348515071 0 0 0
C                 28.8909843070      39.7332442584       8.7910506788 0 0 0
C                 31.2613650595      24.9545845951       9.9076433514 1 1 1
C                 28.8068069386      28.4417719335       9.9949848875 1 1 1
C                 25.0560755547      30.4493857074      10.0143961160 1 1 1
C                 20.8277992787      29.9116632485      10.0081686539 1 1 1
C                 17.7163653895      26.9850313720      10.0025176701 1 1 1
C                 16.9423402237      22.7914931640      10.0072752913 1 1 1
C                 18.6573988567      18.8805068643      10.0040202183 1 1 1
C                 22.1417969287      16.4023383843      10.0052848252 1 1 1
C                 26.3848388766      15.8330298278      10.0035874330 1 1 1
C                 30.4466227442      17.1907351247      10.0028271916 1 1 1
C                 33.4948550023      20.2002832055       9.9965135565 1 1 1
C                 34.5894862401      24.3341080534       9.9901762510 1 1 1
C                 33.4732811233      28.4779192789      10.0097846727 1 1 1
C                 31.7145228844      32.3916591096      10.0178124867 1 1 1
C                 30.0714407248      36.3448228796       9.9959817848 1 1 1
C                 28.6220956349      40.4920394520       9.9198819399 1 1 1
C                 30.6949809606      26.2343042963       9.9290238725 1 1 1
C                 27.7283594032      29.3561156891      10.0044339846 1 1 1
C                 23.6451311443      30.5536422175      10.0130043289 1 1 1
C                 19.6200001853      29.1704220596      10.0066403419 1 1 1
C                 17.1687260867      25.6782424966      10.0022505275 1 1 1
C                 17.2499252938      21.4091395853      10.0065995428 1 1 1
C                 19.6515689325      17.8736841899      10.0027826890 1 1 1
C                 23.4973417023      15.9969176647      10.0042173668 1 1 1
C                 27.7794815285      16.0746514905      10.0034952372 1 1 1
C                 31.5961270865      18.0159205205      10.0035066494 1 1 1
C                 34.1159871908      21.4732553251       9.9940366161 1 1 1
C                 34.4125484670      25.7403680321       9.9867336959 1 1 1
C                 32.9099540819      29.7751150467      10.0090932083 1 1 1
C                 31.1645903593      33.6943481473      10.0258182981 1 1 1
C                 29.5331205434      37.6313672775       9.9674009145 1 1 1
C                 28.4892098900      41.8090912011      10.4996740055 1 1 1
C                 31.2737445783      22.8597200732      11.1429482564 1 1 1
C                 30.3493970752      26.8996391079      11.1907153065 1 1 1
C                 27.1083050575      29.7520619906      11.2448811996 1 1 1
C                 22.9002805812      30.5087297578      11.2464818948 1 1 1
C                 19.0326079575      28.7032871294      11.2405716879 1 1 1
C                 16.9763730666      24.9572845838      11.2365313928 1 1 1
C                 17.4966745393      20.7030122407      11.2386754122 1 1 1
C                 20.2187854709      17.3915171782      11.2362667272 1 1 1
C                 24.2242305329      15.8373425636      11.2377702235 1 1 1
C                 28.5046446295      16.2504443100      11.2365840574 1 1 1
C                 32.1737602199      18.4958622607      11.2331593979 1 1 1
C                 34.4007363655      22.1717422618      11.2210267741 1 1 1
C                 34.2968538855      26.4640429181      11.2248576474 1 1 1
C                 32.6817990205      30.4729698461      11.2496481610 1 1 1
C                 30.9196069887      34.4113469950      11.2608750365 1 1 1
C                 29.1503106440      38.2883030689      11.1707683263 1 1 1
C                 31.6161077196      24.3479906707      11.1302562200 1 1 1
C                 29.4049401892      27.9630088297      11.2252082884 1 1 1
C                 25.7893226278      30.2806499153      11.2458261875 1 1 1
C                 21.5196849568      30.1858616516      11.2432109252 1 1 1
C                 18.0917272533      27.6357427885      11.2349329926 1 1 1
C                 16.8708801778      23.5394579461      11.2382047041 1 1 1
C                 18.1851194075      19.4596347233      11.2374343055 1 1 1
C                 21.4420229923      16.6694824445      11.2371388548 1 1 1
C                 25.6424533347      15.7559876648      11.2369746783 1 1 1
C                 29.8145349953      16.7998134997      11.2366777464 1 1 1
C                 33.1085374714      19.5662344509      11.2302828432 1 1 1
C                 34.6366761822      23.5766511318      11.2180971987 1 1 1
C                 33.8361249750      27.8074436383      11.2343945529 1 1 1
C                 32.0894525314      31.7599947098      11.2576564432 1 1 1
C                 30.3487188041      35.7057005065      11.2558958436 1 1 1
C                 28.6274892562      39.5617419877      11.0717945362 1 1 1
C                 31.1837598578      24.9158816712      12.3209242593 1 1 1
C                 28.8699401215      28.4543366907      12.4754391711 1 1 1
C                 25.0690678637      30.4733686639      12.4708511759 1 1 1
C                 20.8375031586      29.9138300280      12.4791953646 1 1 1
C                 17.6728470836      27.0191775765      12.4640260949 1 1 1
C                 16.8973050861      22.7967937911      12.4676685073 1 1 1
C                 18.5982736091      18.8439710404      12.4672591911 1 1 1
C                 22.1040699758      16.3368336925      12.4673935919 1 1 1
C                 26.3847203349      15.7572114642      12.4668736079 1 1 1
C                 30.4826096217      17.1294800748      12.4655810466 1 1 1
C                 33.5572699286      20.1660886666      12.4557723997 1 1 1
C                 34.6982982895      24.3121974435      12.4471880195 1 1 1
C                 33.6506704570      28.5134954635      12.4689004986 1 1 1
C                 31.8828094366      32.4804100005      12.4891423193 1 1 1
C                 30.1078371927      36.4471995238      12.4727140737 1 1 1
C                 28.3449723556      40.2921425068      12.2051987941 1 1 1
C                 30.6577497202      26.2164336199      12.4175245492 1 1 1
C                 27.7466819911      29.3684637098      12.4782124413 1 1 1
C                 23.6398679451      30.5855703390      12.4733253421 1 1 1
C                 19.5928366930      29.1881651809      12.4748221360 1 1 1
C                 17.1196265261      25.6876344464      12.4658042721 1 1 1
C                 17.2061096953      21.3878632738      12.4682890505 1 1 1
C                 19.6082234009      17.8158523345      12.4661151193 1 1 1
C                 23.4852856947      15.9256080848      12.4674725696 1 1 1
C                 27.8050712095      16.0023662779      12.4666650569 1 1 1
C                 31.6517848543      17.9728222342      12.4641318532 1 1 1
C                 34.2073126506      21.4543394675      12.4502263100 1 1 1
C                 34.5347646508      25.7440779730      12.4482525013 1 1 1
C                 33.0820639805      29.8331899438      12.4738875084 1 1 1
C                 31.3058031281      33.7954181430      12.4939204895 1 1 1
C                 29.5082425433      37.7572158760      12.4472166242 1 1 1
C                 28.3480605917      41.7690987681      11.8506098946 1 1 1
C                 30.8464762545      22.6082891754      12.4161759279 1 1 1
C                 30.1059026393      26.6499822476      13.6823781175 1 1 1
C                 27.1003737255      29.7934997332      13.7107631173 1 1 1
C                 22.9101896547      30.5954126420      13.7226908903 1 1 1
C                 18.9673083009      28.7541223813      13.7077288346 1 1 1
C                 16.8848420214      24.9660941084      13.7009589517 1 1 1
C                 17.4128471036      20.6582211897      13.7020326566 1 1 1
C                 20.1605623762      17.2974649750      13.6989762438 1 1 1
C                 24.2169705942      15.7315761945      13.7007439964 1 1 1
C                 28.5484571628      16.1511326799      13.6995679036 1 1 1
C                 32.2524256945      18.4388228493      13.6952698169 1 1 1
C                 34.5017156981      22.1532935384      13.6806148983 1 1 1
C                 34.4432288741      26.4850169704      13.6848781886 1 1 1
C                 32.8743755699      30.5532380424      13.7092301608 1 1 1
C                 31.1285557387      34.5553142272      13.7174766999 1 1 1
C                 29.3963228959      38.6218460635      13.6392806518 1 1 1
C                 30.8890171923      23.7910751630      13.2258026359 1 1 1
C                 29.3305398711      27.8407859807      13.7244615939 1 1 1
C                 25.8060301512      30.3862096097      13.7090237273 1 1 1
C                 21.5281837727      30.2421125580      13.7152274864 1 1 1
C                 18.0196853142      27.6933725338      13.6997725061 1 1 1
C                 16.7848867828      23.5481225390      13.7014690382 1 1 1
C                 18.0926850531      19.4099717389      13.7009398918 1 1 1
C                 21.3833783938      16.5751011133      13.6999733301 1 1 1
C                 25.6350995169      15.6484263761      13.7002770353 1 1 1
C                 29.8573712284      16.7041023691      13.6993267275 1 1 1
C                 33.1838633080      19.5121314825      13.6919475156 1 1 1
C                 34.7463375775      23.5531848223      13.6784347498 1 1 1
C                 34.0183807070      27.8373564136      13.6935520774 1 1 1
C                 32.2997685833      31.8469407906      13.7179866343 1 1 1
C                 30.5615760851      35.8564133361      13.7114249534 1 1 1
C                 28.9091690799      39.9587393823      13.4765386525 1 1 1
C                 30.5189888449      24.4133652211      14.4194353220 1 1 1
C                 28.7227496959      28.4446469697      14.8349669939 1 1 1
C                 24.9947230165      30.7349039515      14.7980654294 1 1 1
C                 20.6963574812      29.9377424919      14.7974757521 1 1 1
C                 17.5219652705      26.9714457092      14.7916695529 1 1 1
C                 16.8161313256      22.6748923326      14.7956177608 1 1 1
C                 18.5803386882      18.6876414717      14.7953497381 1 1 1
C                 22.1630635259      16.1943331196      14.7987108118 1 1 1
C                 26.5023104920      15.6555821363      14.7981999374 1 1 1
C                 30.6324867626      17.0973933623      14.7953837665 1 1 1
C                 33.6961111383      20.2179927340      14.7849075616 1 1 1
C                 34.8085568135      24.4131132396      14.7800920718 1 1 1
C                 33.7968039080      28.6595052329      14.8036877014 1 1 1
C                 32.0698003744      32.6717837487      14.8211787651 1 1 1
C                 30.3721867366      36.7639928505      14.7589798138 1 1 1
C                 29.1892292478      41.3080590670      13.9240643182 1 1 1
C                 30.2532718846      25.6236483191      14.6507593150 1 1 1
C                 27.8164400017      29.2927350241      14.8009066331 1 1 1
C                 23.7338929590      30.8073382542      14.8405253450 1 1 1
C                 19.6210771078      29.3123008960      14.8148050502 1 1 1
C                 17.0474840249      25.8237995321      14.7972103575 1 1 1
C                 17.0775298184      21.4607344108      14.7999607648 1 1 1
C                 19.4506974567      17.7987876056      14.7953927258 1 1 1
C                 23.3534877370      15.8418471854      14.7968395493 1 1 1
C                 27.7274588286      15.8659011603      14.7956703601 1 1 1
C                 31.6387103888      17.8275593338      14.7934038806 1 1 1
C                 34.2529574731      21.3290742450      14.7825195245 1 1 1
C                 34.6770218431      25.6463432349      14.7806600704 1 1 1
C                 33.3124320800      29.8002170572      14.8014200080 1 1 1
C                 31.5865433679      33.8174948952      14.8074629500 1 1 1
C                 29.9168842439      37.9183964967      14.7348441698 1 1 1
C                 28.7895930328      42.2377115655      13.1393595720 1 1 1
Al                26.5757503612      34.0590689470      16.2210701362 0 0 0
Cl                27.8593285411      33.5723722066      14.5209917627 1 1 1
Cl                27.5024900342      35.4702046619      17.5377430833 1 1 1
Cl                26.4260019415      32.1003542671      17.3486502763 1 1 1
Cl                24.6392389045      34.5578621957      15.4979254941 1 1 1
