&CONTROL
    restart_mode = 'restart'
    calculation = 'relax'
    prefix = 'ns'
    pseudo_dir = '/home/tomas.rojas_s/pseudo/'
    outdir = '/scratch/global/tomas.rojas_s/ns/axial_extraction/step_1/out'
    nstep = 200
    etot_conv_thr = 1.0D-4
    forc_conv_thr = 1.0D-3
/
&SYSTEM
    ibrav = 0
    nat = 197
    ntyp = 3
    ecutwfc = 45.0
    ecutrho = 360.0
    occupations = 'smearing'
    smearing = 'mp'
    degauss = 0.02
    vdw_corr = 'dft-d3'
/
&ELECTRONS
    conv_thr = 1.0D-8
    mixing_mode = 'local-TF'
    mixing_beta = 0.7
/
&IONS
/
&CELL
/

ATOMIC_SPECIES
C 12.011 C.pbe-n-kjpaw_psl.1.0.0.UPF
Al 26.9815385 Al.pbe-n-kjpaw_psl.1.0.0.UPF
Cl 35.45 Cl.pbe-n-kjpaw_psl.1.0.0.UPF

K_POINTS automatic
1 1 1 0 0 0

CELL_PARAMETERS angstrom
50.0 0.0 0.0
0.0 50.0 0.0
0.0 0.0 25.0
ATOMIC_POSITIONS angstrom
C                 30.7090582109      22.7459088662       9.9126362788 1 1 1
C                 30.0212360329      26.6530453946       8.8107029646 0 0 0
C                 27.0578303271      29.6743545915       8.8345959669 0 0 0
C                 22.9263832189      30.4366270367       8.8342371156 0 0 0
C                 19.1170949895      28.6327817539       8.8333767104 0 0 0
C                 17.0843898532      24.9425714516       8.8337663578 0 0 0
C                 17.5887773088      20.7571135460       8.8336293746 0 0 0
C                 20.2856327727      17.4977504215       8.8326575070 0 0 0
C                 24.2302699409      15.9523962864       8.8311496717 0 0 0
C                 28.4535641196      16.3623806894       8.8302142997 0 0 0
C                 32.0754400384      18.5658035462       8.8302267772 0 0 0
C                 34.2209335447      22.2038862261       8.8297912289 0 0 0
C                 34.0937464380      26.4295522581       8.8292196698 0 0 0
C                 32.5296204753      30.4003089760       8.8270653409 0 0 0
C                 30.8718585391      34.3351207914       8.8307891589 0 0 0
C                 29.3855198676      38.3698664414       8.8236131900 0 0 0
C                 30.8749481523      23.8918715847       9.0193138097 0 0 0
C                 29.2240523079      27.8397739570       8.8207990334 0 0 0
C                 25.7443761652      30.2199193993       8.8347887376 0 0 0
C                 21.5400984791      30.1045386606       8.8334276651 0 0 0
C                 18.1853100461      27.5542108410       8.8339359242 0 0 0
C                 16.9644181775      23.5227944629       8.8338118900 0 0 0
C                 18.2880079219      19.5158141734       8.8334716424 0 0 0
C                 21.5095030150      16.7684189204       8.8319934329 0 0 0
C                 25.6528385727      15.8758418866       8.8307367686 0 0 0
C                 29.7688107030      16.9087257366       8.8302399153 0 0 0
C                 33.0045655007      19.6444235098       8.8301189366 0 0 0
C                 34.4333149137      23.6118745408       8.8295996550 0 0 0
C                 33.6520552322      27.7832410993       8.8284059532 0 0 0
C                 31.9503396435      31.7016745042       8.8273852759 0 0 0
C                 30.3670919674      35.6686730547       8.8348515071 0 0 0
C                 28.8909843070      39.7332442584       8.7910506788 0 0 0
C                 31.0342250478      24.9086995130      10.0611393646 1 1 1
C                 28.7864764281      28.4108462166      10.0560464449 1 1 1
C                 25.0545711019      30.3723509958      10.0685195968 1 1 1
C                 20.8805385452      29.8317591337      10.0664315192 1 1 1
C                 17.8085115844      26.9485367577      10.0679067424 1 1 1
C                 17.0155005950      22.8115347289      10.0677093293 1 1 1
C                 18.7196965902      18.9476920742      10.0672628459 1 1 1
C                 22.1621943377      16.4811006502      10.0658698712 1 1 1
C                 26.3649276596      15.9179224428      10.0645628587 1 1 1
C                 30.3922249483      17.2545594015      10.0641327281 1 1 1
C                 33.4017788267      20.2365867312      10.0638586769 1 1 1
C                 34.4493784597      24.3236529118      10.0631072383 1 1 1
C                 33.3932614363      28.4456443567      10.0618970370 1 1 1
C                 31.6720187737      32.3542377348      10.0611041626 1 1 1
C                 30.1244791265      36.3562348379      10.0613716618 1 1 1
C                 28.6692101448      40.4429871863      10.0612766105 1 1 1
C                 30.4827829567      26.1891028171      10.0537346075 1 1 1
C                 27.6800499822      29.3099326448      10.0622673077 1 1 1
C                 23.6354998140      30.4835801423      10.0680566428 1 1 1
C                 19.6619975696      29.0930022191      10.0667753674 1 1 1
C                 17.2545103701      25.6355186932      10.0677427710 1 1 1
C                 17.3294541272      21.4217506901      10.0676000022 1 1 1
C                 19.7231478362      17.9361517910      10.0668802084 1 1 1
C                 23.5273432923      16.0725727092      10.0652164083 1 1 1
C                 27.7687179892      16.1622514140      10.0641828916 1 1 1
C                 31.5499231022      18.0847092289      10.0642154723 1 1 1
C                 34.0206810662      21.5206028787      10.0638668257 1 1 1
C                 34.2699350278      25.7383929360      10.0628480258 1 1 1
C                 32.8261498167      29.7536004415      10.0612225737 1 1 1
C                 31.1326294655      33.6725946891      10.0612968398 1 1 1
C                 29.6366418976      37.7072175696      10.0619365145 1 1 1
C                 28.3025523458      41.7320900850      10.0577362333 1 1 1
C                 31.0578526967      22.8844538742      11.3023716494 1 1 1
C                 30.1706587879      26.8236742238      11.3012155961 1 1 1
C                 27.0731519168      29.6779710664      11.3010029150 1 1 1
C                 22.9254266139      30.4252461080      11.3013545965 1 1 1
C                 19.1169083343      28.6330375906      11.3015492362 1 1 1
C                 17.0837131643      24.9429119215      11.3020070311 1 1 1
C                 17.5875301789      20.7563371648      11.3015204510 1 1 1
C                 20.2860614131      17.4977412717      11.3008389548 1 1 1
C                 24.2303745373      15.9524360884      11.2991353834 1 1 1
C                 28.4541304424      16.3602757415      11.2979705279 1 1 1
C                 32.0771670442      18.5645650808      11.2978921550 1 1 1
C                 34.2378519933      22.2005610587      11.2968917025 1 1 1
C                 34.1045566694      26.4315148052      11.2964797826 1 1 1
C                 32.5335811885      30.4023614653      11.2949920660 1 1 1
C                 30.8743292688      34.3361525653      11.2919999174 1 1 1
C                 29.3979556806      38.3757882787      11.3045122716 1 1 1
C                 31.3260720589      24.3216703920      11.3022910152 1 1 1
C                 29.2932839742      27.9265410469      11.3009032784 1 1 1
C                 25.7508987932      30.2062919887      11.3011410546 1 1 1
C                 21.5407581687      30.1001903761      11.3010905709 1 1 1
C                 18.1861029515      27.5547448557      11.3020244764 1 1 1
C                 16.9651971033      23.5232546700      11.3019407127 1 1 1
C                 18.2870614688      19.5152871432      11.3013016925 1 1 1
C                 21.5096480906      16.7683148308      11.3001535331 1 1 1
C                 25.6529938491      15.8748807853      11.2987322712 1 1 1
C                 29.7693081391      16.9071179933      11.2980116522 1 1 1
C                 33.0076641087      19.6426688156      11.2974301060 1 1 1
C                 34.4506645108      23.6100592151      11.2965163627 1 1 1
C                 33.6577878692      27.7844939570      11.2956567672 1 1 1
C                 31.9536161418      31.7031851250      11.2948806142 1 1 1
C                 30.3748027540      35.6713976167      11.2880413962 1 1 1
C                 28.8984381576      39.7372455007      11.3369762021 1 1 1
C                 31.0335241238      24.9087186396      12.5429866223 1 1 1
C                 28.7864930621      28.4110875566      12.5457245447 1 1 1
C                 25.0555499655      30.3752084570      12.5340723370 1 1 1
C                 20.8795181216      29.8338153558      12.5358243921 1 1 1
C                 17.8079789890      26.9495026114      12.5363358629 1 1 1
C                 17.0156274178      22.8114252455      12.5359399574 1 1 1
C                 18.7204561325      18.9483993215      12.5352905599 1 1 1
C                 22.1625780045      16.4815517279      12.5342782108 1 1 1
C                 26.3653415228      15.9190427408      12.5327944166 1 1 1
C                 30.3929476004      17.2534130035      12.5323229627 1 1 1
C                 33.4008119624      20.2381449389      12.5313206107 1 1 1
C                 34.4475368608      24.3238238956      12.5310803031 1 1 1
C                 33.3925404515      28.4468446856      12.5299867796 1 1 1
C                 31.6711072749      32.3578691164      12.5288991907 1 1 1
C                 30.1320680840      36.3261109518      12.5190982108 1 1 1
C                 28.6653168912      40.3253820468      12.5781548782 1 1 1
C                 30.4825764052      26.1894721003      12.5490882826 1 1 1
C                 27.6809170509      29.3112400283      12.5395770485 1 1 1
C                 23.6360024112      30.4836616220      12.5344866799 1 1 1
C                 19.6610040569      29.0945727640      12.5361029851 1 1 1
C                 17.2537161287      25.6364806909      12.5361954447 1 1 1
C                 17.3308735006      21.4220127795      12.5358145805 1 1 1
C                 19.7232541743      17.9365092819      12.5350096761 1 1 1
C                 23.5277552604      16.0738612258      12.5336063337 1 1 1
C                 27.7690786662      16.1615010263      12.5324519995 1 1 1
C                 31.5495861799      18.0843747605      12.5321970126 1 1 1
C                 34.0196340358      21.5209213096      12.5309833922 1 1 1
C                 34.2701331254      25.7376024048      12.5309484293 1 1 1
C                 32.8252003177      29.7532297176      12.5299197200 1 1 1
C                 31.1312024313      33.6757324031      12.5279625794 1 1 1
C                 29.6501942481      37.6608195366      12.5121313246 1 1 1
C                 28.2089093596      41.5938722082      13.1364391464 1 1 1
C                 30.7079404667      22.7463434919      12.6920378697 1 1 1
C                 30.0202770083      26.6529421847      13.7962740810 1 1 1
C                 27.0593918182      29.6766235792      13.7675479619 1 1 1
C                 22.9261230558      30.4373504254      13.7680499419 1 1 1
C                 19.1167123244      28.6339210491      13.7698835465 1 1 1
C                 17.0834999517      24.9429780334      13.7697283439 1 1 1
C                 17.5899718274      20.7575384082      13.7697156112 1 1 1
C                 20.2856892234      17.4980249136      13.7689667973 1 1 1
C                 24.2305875079      15.9535546027      13.7673393966 1 1 1
C                 28.4541411272      16.3602288156      13.7663684811 1 1 1
C                 32.0752843253      18.5657886070      13.7658178272 1 1 1
C                 34.2201850906      22.2033195552      13.7651647967 1 1 1
C                 34.0943435577      26.4290051995      13.7639367810 1 1 1
C                 32.5286652755      30.4006111008      13.7632811614 1 1 1
C                 30.8709977101      34.3345207332      13.7632052161 1 1 1
C                 29.4128302661      38.2778910848      13.7630533913 1 1 1
C                 30.8737743226      23.8919642163      13.5850975603 1 1 1
C                 29.2240639055      27.8401708347      13.7857048806 1 1 1
C                 25.7456611217      30.2223003545      13.7677166297 1 1 1
C                 21.5393058969      30.1062866009      13.7686799506 1 1 1
C                 18.1846748362      27.5553527560      13.7702290813 1 1 1
C                 16.9638297760      23.5230178836      13.7696913340 1 1 1
C                 18.2891305406      19.5163154724      13.7694182997 1 1 1
C                 21.5096086423      16.7686016385      13.7683373104 1 1 1
C                 25.6533785707      15.8767798013      13.7669428455 1 1 1
C                 29.7699075412      16.9066888755      13.7663028379 1 1 1
C                 33.0041649686      19.6454743873      13.7652735205 1 1 1
C                 34.4317334510      23.6121593727      13.7649269903 1 1 1
C                 33.6522735321      27.7838666762      13.7635218827 1 1 1
C                 31.9494492583      31.7034209218      13.7633859353 1 1 1
C                 30.3662568428      35.6638504975      13.7628917198 1 1 1
C                 28.9359850327      39.5675735472      13.7636683322 1 1 1
C                 30.6780436907      24.4340398169      15.0044825172 1 1 1
C                 28.7265682590      28.3694909208      15.0033030816 1 1 1
C                 25.0545777775      30.3894241387      15.0033731633 1 1 1
C                 20.8798066292      29.8348933783      15.0034246025 1 1 1
C                 17.8080842493      26.9483427579      15.0042719747 1 1 1
C                 17.0158105803      22.8113677776      15.0038797470 1 1 1
C                 18.7207686847      18.9487368372      15.0036212654 1 1 1
C                 22.1627180049      16.4820810901      15.0021483258 1 1 1
C                 26.3651174646      15.9203890170      15.0008948800 1 1 1
C                 30.3921667086      17.2551573497      15.0002305189 1 1 1
C                 33.3948598374      20.2397032387      14.9996733889 1 1 1
C                 34.4288717757      24.3237554076      14.9989118198 1 1 1
C                 33.3868343055      28.4442413974      14.9975060675 1 1 1
C                 31.6679179865      32.3564148928      14.9978936185 1 1 1
C                 30.1206882191      36.3211315638      15.0074204907 1 1 1
C                 28.6611447895      40.3223909719      14.9505137121 1 1 1
C                 30.2831692528      25.8788370102      15.0037151857 1 1 1
C                 27.6574932560      29.3010355225      15.0034299448 1 1 1
C                 23.6356612127      30.4988292265      15.0033885212 1 1 1
C                 19.6626404390      29.0939815491      15.0038336942 1 1 1
C                 17.2556036453      25.6352322973      15.0040680496 1 1 1
C                 17.3316430481      21.4224041345      15.0038610624 1 1 1
C                 19.7232646104      17.9368550819      15.0032281124 1 1 1
C                 23.5276627025      16.0738874718      15.0014827093 1 1 1
C                 27.7685311162      16.1635812858      15.0004980944 1 1 1
C                 31.5483725121      18.0863249926      14.9999965059 1 1 1
C                 34.0063046476      21.5247861284      14.9995703805 1 1 1
C                 34.2535832032      25.7361910441      14.9984679701 1 1 1
C                 32.8205894595      29.7508529277      14.9967074649 1 1 1
C                 31.1289126406      33.6754080993      14.9990783972 1 1 1
C                 29.6362037242      37.6551029244      15.0145377941 1 1 1
C                 28.2042406234      41.5932336716      14.3987387912 1 1 1
Al                26.5757503612      34.0590689470      11.2210701362 0 0 0
Cl                27.5309969943      33.1973842870       9.4717536085 1 1 1
Cl                26.7749073108      36.2049113294      11.2010563463 1 1 1
Cl                27.5626328234      33.1957305732      12.9515200147 1 1 1
Cl                24.4661766047      33.5812024278      11.2562013551 1 1 1
