&CONTROL
    calculation = 'relax'
    restart_mode='restart',
    prefix='ns',
    nstep=200,
    pseudo_dir = '/home/leandro.ruiz/pseudo/',
    outdir='/home/leandro.ruiz/2et',
    max_seconds=85500
/
&SYSTEM
   ntyp             = 5
   nat              = 212
   ibrav            = 0
   ecutwfc          =45.33
   occupations='smearing', smearing='mp', degauss=0.02,
   vdw_corr='dft-d3'
/
&ELECTRONS
   mixing_mode = 'local-TF',
   mixing_beta = 0.7
/
&IONS
/
&CELL
/

ATOMIC_SPECIES
C 12.011 C.pbe-n-kjpaw_psl.1.0.0.UPF
H 1.008  H.pbe-kjpaw_psl.1.0.0.UPF
N 14.007 N.pbe-n-kjpaw_psl.1.0.0.UPF
Al 26.9815385 Al.pbe-n-kjpaw_psl.1.0.0.UPF
Cl 35.45 Cl.pbe-n-kjpaw_psl.1.0.0.UPF

K_POINTS automatic
1 1 5 0 0 0 

CELL_PARAMETERS angstrom
49.9999996 0.00000000000000 0.00000000000000
0.00000000000000 49.9999996 0.00000000000000
0.00000000000000 0.00000000000000 19.4044999

ATOMIC_POSITIONS angstrom
C       31.17215637      22.30449036      -0.00077107
C       30.81713813      26.31951844      -0.00052660
C       28.25930629      29.68149182      -0.00049337
C       24.40655273      31.38785246       0.00109786
C       20.41410104      30.11934420       0.00088620
C       18.05677501      26.62369230      -0.00035257
C       18.07917182      22.40385361      -0.00014623
C       20.34474685      18.83058990      -0.00045320
C       24.06579341      16.81232739      -0.00016239
C       28.30625720      16.78572322       0.00102962
C       32.13931955      18.60684868      -0.00017855
C       34.57619542      22.05882755       0.00043402
C       34.60658343      26.28231586       0.00233353
C       32.66545867      30.06532392      -0.00019125
C       29.59272235      33.01494416       0.00176962
C       25.97921432      35.16242389       0.00039671
C       31.64342447      23.68938507      -0.00081087
C       30.10462568      27.53499265      -0.00003932
C       27.10401682      30.51617428      -0.00010168
C       22.98508728      31.30270795       0.00120698
C       19.39324612      29.12611443       0.00062935
C       17.78542949      25.22489131      -0.00014825
C       18.61850313      21.08561422      -0.00084722
C       21.46635354      17.95291139       0.00006324
C       25.47173529      16.58189757      -0.00010438
C       29.67050728      17.19654658       0.00094738
C       33.16917264      19.59247859      -0.00042211
C       34.87175918      23.45447465       0.00133167
C       34.12587952      27.62340737      -0.00194679
C       31.73964820      31.14695205      -0.00103397
C       28.41164273      33.80483296       0.00152241
C       24.75930478      35.79378248      -0.00023677
C       31.42981730      24.31078189       1.24166349
C       29.68534161      28.09487681       1.24454532
C       26.46777616      30.84941291       1.23292637
C       22.29312206      31.12493719       1.23516546
C       18.96649418      28.55370305       1.23489371
C       17.75391240      24.51196279       1.23446372
C       18.97499841      20.46709245       1.23291288
C       22.07760187      17.58588519       1.23432774
C       26.18400220      16.55213768       1.23422717
C       30.32642579      17.47780768       1.23444120
C       33.60737235      20.15576117       1.23333586
C       34.90256077      24.16811945       1.23191057
C       33.81571523      28.26560862       1.23211828
C       31.23584361      31.65033306       1.23627750
C       27.80464995      34.16163246       1.24612344
C       24.03793557      36.15072356       1.18474351
C       31.04370411      25.65081321       1.24738145
C       28.77151667      29.18761556       1.23872085
C       25.11444685      31.29303887       1.23425696
C       21.00063601      30.52624895       1.23515570
C       18.29655524      27.29597415       1.23393688
C       17.90332141      23.09494005       1.23430989
C       19.84146954      19.33658249       1.23322780
C       23.38216208      17.01351838       1.23414668
C       27.60472291      16.65582497       1.23474850
C       31.56359897      18.18440372       1.23348506
C       34.31496072      21.39353979       1.23291145
C       34.76594493      25.58719523       1.23154492
C       33.08339855      29.48767347       1.23332370
C       30.15920335      32.58461063       1.23798261
C       26.56241894      34.84730867       1.25259900
C       22.82956173      36.75277353       0.63607659
C       30.80482995      22.21687475       1.38665356
C       30.64437224      26.17236828       2.49402498
C       28.24054302      29.67503809       2.46750041
C       24.40637166      31.38657865       2.46833606
C       20.41337749      30.12098405       2.46921596
C       18.05691069      26.62359250       2.46792880
C       18.07877661      22.40280633       2.46799984
C       20.34320788      18.83013956       2.46756999
C       24.06630619      16.81184769       2.46806003
C       28.30559083      16.78785641       2.46882748
C       32.13281080      18.61247767       2.46794471
C       34.55902463      22.06372549       2.46692668
C       34.59851902      26.28039707       2.46509048
C       32.66432983      30.06214563       2.46732152
C       29.59062099      33.00975733       2.47292890
C       25.88311047      35.18901455       2.45971670
C       31.12720928      23.32597480       2.28259360
C       30.02403996      27.45978915       2.48408064
C       27.09455331      30.51568592       2.46719887
C       22.98434780      31.30231595       2.46895470
C       19.39169219      29.12760687       2.46880868
C       17.78495621      25.22497224       2.46832378
C       18.61772200      21.08382921       2.46730773
C       21.46456618      17.95166375       2.46796016
C       25.47208951      16.58224340       2.46843273
C       29.66951044      17.19926661       2.46846236
C       33.15806244      19.60145250       2.46747577
C       34.85336952      23.45744733       2.46616062
C       34.12060269      27.62230292       2.46550268
C       31.73898205      31.14505712       2.46846125
C       28.40272364      33.79917348       2.47628244
C       24.59208526      35.84666552       2.42655278
C       31.00213692      23.88841740       3.70121020
C       29.61799721      28.06104571       3.70212784
C       26.46358849      30.84499095       3.70237828
C       22.29363509      31.12418740       3.70369216
C       18.96363609      28.55536728       3.70251033
C       17.75717865      24.51204977       3.70261638
C       18.97484202      20.46649373       3.70165989
C       22.07746644      17.58604937       3.70176407
C       26.18416132      16.55295598       3.70289027
C       30.32460527      17.48016564       3.70262217
C       33.59499995      20.16322840       3.70210488
C       34.88517047      24.16863840       3.70065081
C       33.81057290      28.26284823       3.70051200
C       31.23601224      31.64722638       3.70354012
C       27.76922339      34.16747859       3.70382034
C       23.91207233      36.15467659       3.70142310
C       30.79986204      25.37192302       3.70173700
C       28.74336159      29.17697763       3.70256217
C       25.11249808      31.28864651       3.70292265
C       20.99968284      30.52858945       3.70373828
C       18.29420966      27.29752492       3.70183634
C       17.90373835      23.09478375       3.70199196
C       19.84158920      19.33644843       3.70195831
C       23.38193825      17.01375018       3.70185210
C       27.60483649      16.65775073       3.70316099
C       31.56047333      18.18776271       3.70226566
C       34.30001612      21.40042712       3.70170090
C       34.75382491      25.58632917       3.70003160
C       33.07989412      29.48432762       3.70165511
C       30.16017864      32.57781970       3.70411446
C       26.51036900      34.85481055       3.70319668
C       22.67737347      36.68080376       3.69584329
C       30.80150334      22.21867951       6.01532655
C       30.64295210      26.17215010       4.90981872
C       28.23958762      29.67377099       4.93791637
C       24.40695289      31.38503336       4.93807310
C       20.41202375      30.12196377       4.93767162
C       18.05647163      26.62482557       4.93640340
C       18.07846128      22.40298369       4.93592762
C       20.34476628      18.83078191       4.93614471
C       24.06575942      16.81283200       4.93632971
C       28.30609335      16.78833377       4.93708568
C       32.13283995      18.61200949       4.93680664
C       34.55908924      22.06374730       4.93623934
C       34.59846870      26.28042121       4.93500508
C       32.66452275      30.06217906       4.93676598
C       29.59068097      33.00975900       4.93522674
C       25.88262623      35.19023637       4.94585921
C       31.12586863      23.32592043       5.12056032
C       30.02191020      27.45897780       4.92033654
C       27.09491036      30.51608311       4.93765701
C       22.98522319      31.30172292       4.93786771
C       19.39080417      29.12777160       4.93694588
C       17.78891879      25.22535935       4.93674538
C       18.61787058      21.08441689       4.93550328
C       21.46656539      17.95319280       4.93602389
C       25.47162508      16.58258972       4.93676712
C       29.66975915      17.19950181       4.93710425
C       33.15824431      19.60124693       4.93670821
C       34.85337447      23.45732522       4.93546309
C       34.12028846      27.62226530       4.93513794
C       31.73926029      31.14520438       4.93811018
C       28.40268129      33.79899664       4.93145566
C       24.59061290      35.84794521       4.97761540
C       31.42923934      24.31090147       6.16183514
C       29.68339740      28.09370137       6.16017372
C       26.46814785      30.85015216       6.17201674
C       22.29354987      31.12527870       6.17154730
C       18.96425602      28.55541838       6.17089402
C       17.75608434      24.51169871       6.17026880
C       18.97486747      20.46715112       6.16969474
C       22.07823614      17.58750855       6.17039231
C       26.18459887      16.55236864       6.17066649
C       30.32601187      17.47758468       6.17139872
C       33.60778697      20.15582964       6.17068277
C       34.90282164      24.16793802       6.16944553
C       33.81556194      28.26561966       6.16888762
C       31.23609192      31.65044606       6.17078274
C       27.80455435      34.16183082       6.16102475
C       24.03646785      36.15152484       6.21975458
C       31.04411202      25.65119321       6.15602085
C       28.77029822      29.18656423       6.16685881
C       25.11448553      31.29232707       6.17228250
C       20.99994030      30.52802898       6.17131535
C       18.29292087      27.29836164       6.17047680
C       17.90272513      23.09446161       6.17000049
C       19.84179712      19.33662686       6.16994052
C       23.38203488      17.01470259       6.17027563
C       27.60551010      16.65609731       6.17123757
C       31.56329918      18.18377489       6.17121163
C       34.31526790      21.39376777       6.17047547
C       34.76601821      25.58700075       6.16848016
C       33.08353351      29.48786245       6.17014598
C       30.15940062      32.58463696       6.17012203
C       26.56243064      34.84821141       6.15308427
C       22.82889770      36.75367671      -0.63333784
N       32.54477661      29.95516016       7.77106459
N       34.65723517      29.62431062       8.13300406
C       31.12166029      29.66435492       7.53626581
C       33.50638667      29.01255856       7.80222553
C       33.09692675      31.18884301       8.08575776
C       34.42850046      30.97954628       8.30936320
C       30.36864307      29.38000288       8.83058514
C       35.92333500      28.90139097       8.28902698
H       30.69546667      30.52685904       7.00708720
H       31.08519070      28.79605201       6.86692494
H       33.43660445      27.87391364       7.69970879
H       32.51132694      32.09981442       8.11091837
H       35.21831553      31.67266864       8.57054549
H       30.79671580      28.50957703       9.34279836
H       29.31799118      29.15739966       8.60303718
H       30.39999481      30.24229637       9.50976928
H       35.69334362      27.82594788       8.19831572
H       36.62581753      29.21184580       7.50676675
H       36.34582638      29.11682294       9.27769426
Cl      33.89661259      26.01788417       7.95206020
