&CONTROL
    restart_mode = 'restart'
    calculation = 'relax'
    prefix = 'ns'
    pseudo_dir = '/home/tomas.rojas_s/pseudo/'
    outdir = '/scratch/global/tomas.rojas_s/ns/extraction_path/step_4/out'
    nstep = 200
    etot_conv_thr = 1.0D-4
    forc_conv_thr = 1.0D-3
/
&SYSTEM
    ibrav = 0
    nat = 197
    ntyp = 3
    ecutwfc = 45.0
    ecutrho = 360.0
    occupations = 'smearing'
    smearing = 'mp'
    degauss = 0.02
    vdw_corr = 'dft-d3'
/
&ELECTRONS
    conv_thr = 1.0D-8
    mixing_mode = 'local-TF'
    mixing_beta = 0.7
/
&IONS
/
&CELL
/

ATOMIC_SPECIES
C 12.011 C.pbe-n-kjpaw_psl.1.0.0.UPF
Al 26.9815385 Al.pbe-n-kjpaw_psl.1.0.0.UPF
Cl 35.45 Cl.pbe-n-kjpaw_psl.1.0.0.UPF

K_POINTS automatic
1 1 3 0 0 0

CELL_PARAMETERS angstrom
50.00000000000000 0.00000000000000 0.00000000000000
0.00000000000000 50.00000000000000 0.00000000000000
0.00000000000000 0.00000000000000 7.40451720000000

ATOMIC_POSITIONS angstrom
C                 31.5611905057      23.8231287695       1.1320571637 1 1 1
C                 29.8930543006      27.3618118785       7.4268636342 1 1 1
C                 26.2783926212      29.5942957065       0.0480547931 1 1 1
C                 22.0779961762      30.0798523656       0.0464259098 1 1 1
C                 18.3215234314      28.1793074041       0.0455875078 1 1 1
C                 16.5143558278      24.3816829481       0.0456597960 1 1 1
C                 17.3320055250      20.2433661766       0.0455230482 1 1 1
C                 20.2420493392      17.1725155723       0.0454739549 1 1 1
C                 24.2741092830      15.8581364178       0.0454217813 1 1 1
C                 28.4849079529      16.4007419010       0.0456103540 1 1 1
C                 32.0999624724      18.6268230260       0.0458891453 1 1 1
C                 34.4787796668      22.1341417751       0.0465426463 1 1 1
C                 35.0438752821      26.3313214923       0.0469905742 1 1 1
C                 34.3814997509      30.5460243008       0.0465677427 1 1 1
C                 33.3561117463      34.6850064704       0.0505867828 1 1 1
C                 31.8696491203      38.7171423461       7.4431748341 1 1 1
C                 31.4645670431      24.9587199064       0.2301107865 1 1 1
C                 28.7901186534      28.2683646605       7.4355789133 1 1 1
C                 24.9106882456      29.9885547636       0.0475004657 1 1 1
C                 20.6985967216      29.7198167202       0.0461465531 1 1 1
C                 17.4408675660      27.0584963959       0.0456902097 1 1 1
C                 16.5052704171      22.9565650836       0.0455930339 1 1 1
C                 18.1136772928      19.0522513404       0.0455528192 1 1 1
C                 21.5110000097      16.5242883746       0.0455336500 1 1 1
C                 25.6984362128      15.8402781560       0.0452558149 1 1 1
C                 29.7907355590      16.9694503172       0.0458111759 1 1 1
C                 33.0619848172      19.6763928717       0.0463862988 1 1 1
C                 34.8807601749      23.4993608081       0.0470022379 1 1 1
C                 34.8910214214      27.7462614301       0.0467515634 1 1 1
C                 34.0771882407      31.9363065203       0.0468626784 1 1 1
C                 32.9179966842      36.0413717439       0.0548057634 1 1 1
C                 31.2928604781      40.0478756688       7.4109780947 1 1 1
C                 31.3794839334      25.9890693965       1.2702418890 1 1 1
C                 28.2192676375      28.6963669599       1.2701325956 1 1 1
C                 24.2107791633      30.0958900235       1.2810758726 1 1 1
C                 20.0455418560      29.4333029868       1.2794611622 1 1 1
C                 17.0991027256      26.4323218518       1.2793993691 1 1 1
C                 16.6102974115      22.2507975083       1.2795802687 1 1 1
C                 18.5825428981      18.5147318284       1.2794708695 1 1 1
C                 22.1807212771      16.2782226706       1.2794919591 1 1 1
C                 26.4079830169      15.9066857281       1.2793932438 1 1 1
C                 30.4105312147      17.3223509805       1.2795618087 1 1 1
C                 33.4914585035      20.2454573587       1.2800691769 1 1 1
C                 35.0155887902      24.1972419188       1.2806450675 1 1 1
C                 34.7833855022      28.4486344058       1.2805093957 1 1 1
C                 33.9161378449      32.6256435863       1.2809858454 1 1 1
C                 32.6814038477      36.7311619065       1.2820031933 1 1 1
C                 30.9752689642      40.7194677820       1.2822009952 1 1 1
C                 30.4814827394      27.0590646174       1.2654631329 1 1 1
C                 26.9424609085      29.3246482934       1.2759878199 1 1 1
C                 22.7867818942      30.1494671972       1.2801845493 1 1 1
C                 18.8493278823      28.6584640932       1.2794063767 1 1 1
C                 16.6336222486      25.0852336473       1.2794487032 1 1 1
C                 17.0274659073      20.8883199513       1.2794759726 1 1 1
C                 19.6511803349      17.5723661067       1.2795113360 1 1 1
C                 23.5661909894      15.9447376719       1.2794031236 1 1 1
C                 27.8042305395      16.1886999530       1.2793116235 1 1 1
C                 31.5705087312      18.1500908733       1.2797415721 1 1 1
C                 34.2112907440      21.4751320497       1.2809133680 1 1 1
C                 35.0860150522      25.6204253149       1.2804281461 1 1 1
C                 34.5251136391      29.8502900403       1.2806090987 1 1 1
C                 33.5637576380      34.0046586597       1.2815631744 1 1 1
C                 32.1455200520      38.0625831514       1.2818925217 1 1 1
C                 30.3889979608      41.9258974699       1.2835989791 1 1 1
C                 31.8906819210      24.0344879493       2.5141710017 1 1 1
C                 29.9970615642      27.5719238471       2.5141990971 1 1 1
C                 26.2829667516      29.5814154071       2.5142875752 1 1 1
C                 22.0773324161      30.0750295608       2.5140058275 1 1 1
C                 18.3225030649      28.1776309804       2.5137754376 1 1 1
C                 16.5149346967      24.3813821225       2.5136833327 1 1 1
C                 17.3322418386      20.2434018379       2.5136216359 1 1 1
C                 20.2421847588      17.1727117544       2.5135756435 1 1 1
C                 24.2741842518      15.8574384976       2.5134468540 1 1 1
C                 28.4836118208      16.4038335404       2.5134266693 1 1 1
C                 32.1057809213      18.6217485506       2.5134066203 1 1 1
C                 34.5063047334      22.1249170440       2.5136659093 1 1 1
C                 35.0574794439      26.3316281457       2.5138237230 1 1 1
C                 34.3821624321      30.5461712135       2.5145440626 1 1 1
C                 33.3789075026      34.6923806364       2.5116434644 1 1 1
C                 31.8751140226      38.7190832691       2.5250816799 1 1 1
C                 31.8247551212      25.4993438156       2.5141896961 1 1 1
C                 28.8355534021      28.3657469566       2.5142253679 1 1 1
C                 24.9144165679      29.9688617269       2.5141846788 1 1 1
C                 20.6992468530      29.7174125603       2.5138963339 1 1 1
C                 17.4413655113      27.0583146155       2.5137367298 1 1 1
C                 16.5045350832      22.9566165509       2.5136576707 1 1 1
C                 18.1141710465      19.0526650483       2.5135934058 1 1 1
C                 21.5111061153      16.5247207895       2.5135903798 1 1 1
C                 25.6983912883      15.8389847780       2.5133544080 1 1 1
C                 29.7895445404      16.9719825402       2.5134135694 1 1 1
C                 33.0683458902      19.6716275510       2.5135437637 1 1 1
C                 34.9102769002      23.4916097969       2.5137217281 1 1 1
C                 34.8973861498      27.7460321694       2.5138139374 1 1 1
C                 34.0775088165      31.9365348996       2.5147052068 1 1 1
C                 32.9430277757      36.0500122885       2.5082008975 1 1 1
C                 31.2929647599      40.0473560001       2.5578342301 1 1 1
C                 31.3797295722      25.9893058780       3.7581443113 1 1 1
C                 28.2205107753      28.6984355039       3.7584430901 1 1 1
C                 24.2108528828      30.0963433222       3.7472150412 1 1 1
C                 20.0455643796      29.4332859147       3.7482624789 1 1 1
C                 17.0990407786      26.4323555260       3.7480498982 1 1 1
C                 16.6104163516      22.2507902252       3.7477735584 1 1 1
C                 18.5826246975      18.5147936740       3.7478063740 1 1 1
C                 22.1808246432      16.2782233139       3.7476762798 1 1 1
C                 26.4081509954      15.9065581461       3.7477756203 1 1 1
C                 30.4104009577      17.3229679087       3.7476196704 1 1 1
C                 33.4916978360      20.2458342915       3.7477369453 1 1 1
C                 35.0147567108      24.1980539205       3.7478551627 1 1 1
C                 34.7842176087      28.4497642893       3.7485001354 1 1 1
C                 33.9151377578      32.6294262991       3.7481406266 1 1 1
C                 32.7009801270      36.7040702741       3.7383907165 1 1 1
C                 31.0501543547      40.6313977195       3.7990785458 1 1 1
C                 30.4821427420      27.0597382550       3.7630323963 1 1 1
C                 26.9433142189      29.3265310947       3.7524758882 1 1 1
C                 22.7867578242      30.1497162519       3.7478895569 1 1 1
C                 18.8492310491      28.6586454207       3.7481623943 1 1 1
C                 16.6336227824      25.0852267072       3.7479916215 1 1 1
C                 17.0274627914      20.8883576583       3.7477835073 1 1 1
C                 19.6511923703      17.5724222124       3.7478262747 1 1 1
C                 23.5661231032      15.9450179453       3.7476429638 1 1 1
C                 27.8041143431      16.1885436530       3.7477382432 1 1 1
C                 31.5699086464      18.1502521343       3.7477071652 1 1 1
C                 34.2104235781      21.4751228999       3.7473467184 1 1 1
C                 35.0864096881      25.6197082255       3.7482621447 1 1 1
C                 34.5251429407      29.8496791709       3.7490499489 1 1 1
C                 33.5654417424      34.0097524123       3.7468228898 1 1 1
C                 32.1778774688      38.0231755869       3.7323223532 1 1 1
C                 30.4982108812      41.8631780193       4.3519921760 1 1 1
C                 31.5614093195      23.8231978784       3.8961212059 1 1 1
C                 29.8939936713      27.3628696354       5.0062220873 1 1 1
C                 26.2789784166      29.5958677406       4.9804311541 1 1 1
C                 22.0779563267      30.0801235543       4.9815626465 1 1 1
C                 18.3214536856      28.1794327650       4.9819299269 1 1 1
C                 16.5143205297      24.3816635681       4.9817594120 1 1 1
C                 17.3318179924      20.2433364675       4.9817698308 1 1 1
C                 20.2420501985      17.1725186176       4.9817605346 1 1 1
C                 24.2739749940      15.8581985075       4.9817443263 1 1 1
C                 28.4848753607      16.4005468391       4.9815212861 1 1 1
C                 32.0996390468      18.6264926388       4.9815240997 1 1 1
C                 34.4784788511      22.1338545987       4.9817148897 1 1 1
C                 35.0463197011      26.3306220404       4.9815782939 1 1 1
C                 34.3806953684      30.5461958938       4.9823582635 1 1 1
C                 33.3590910517      34.6864950395       4.9828361450 1 1 1
C                 31.9228006121      38.6341428079       4.9836408456 1 1 1
C                 31.4646724312      24.9589329634       4.7981833582 1 1 1
C                 28.7913989233      28.2702893988       4.9975051011 1 1 1
C                 24.9109126320      29.9893137499       4.9808188820 1 1 1
C                 20.6985703192      29.7199191934       4.9816294665 1 1 1
C                 17.4408776275      27.0585191920       4.9817592620 1 1 1
C                 16.5052340246      22.9565278006       4.9817624245 1 1 1
C                 18.1136406282      19.0522456322       4.9817175301 1 1 1
C                 21.5111130687      16.5241582393       4.9817137845 1 1 1
C                 25.6985034077      15.8399695351       4.9816909950 1 1 1
C                 29.7909101812      16.9698765994       4.9815024929 1 1 1
C                 33.0625701853      19.6762393676       4.9813026065 1 1 1
C                 34.8809751797      23.4999736590       4.9817172088 1 1 1
C                 34.8933414273      27.7469738732       4.9820779547 1 1 1
C                 34.0755866323      31.9378469991       4.9824359797 1 1 1
C                 32.9261936082      36.0398808480       4.9829905058 1 1 1
C                 31.3829015670      39.8986207834       4.9841566204 1 1 1
C                 31.1262144941      25.4234796551       6.2163269254 1 1 1
C                 28.1755667610      28.6499692419       6.2165506676 1 1 1
C                 24.2096487597      30.1071539324       6.2163747858 1 1 1
C                 20.0451557952      29.4341545359       6.2161261221 1 1 1
C                 17.0995261868      26.4317262542       6.2159467955 1 1 1
C                 16.6109146501      22.2507060010       6.2159332088 1 1 1
C                 18.5827429983      18.5147888350       6.2158082649 1 1 1
C                 22.1807937766      16.2782545133       6.2158350034 1 1 1
C                 26.4084283130      15.9073753249       6.2156396782 1 1 1
C                 30.4097787649      17.3230386851       6.2157039752 1 1 1
C                 33.4823327489      20.2505228364       6.2157124883 1 1 1
C                 34.9904664545      24.2019514262       6.2160860323 1 1 1
C                 34.7791703303      28.4491970599       6.2159951183 1 1 1
C                 33.9107843207      32.6271912223       6.2173269694 1 1 1
C                 32.6818704527      36.6973847184       6.2280359039 1 1 1
C                 31.0499465604      40.6315187515       6.1695816333 1 1 1
C                 30.3587119219      26.6962553777       6.2164214913 1 1 1
C                 26.9321421612      29.3289313724       6.2165434004 1 1 1
C                 22.7864371033      30.1555625279       6.2162747104 1 1 1
C                 18.8493084716      28.6596455281       6.2160551627 1 1 1
C                 16.6330712686      25.0853094598       6.2159355407 1 1 1
C                 17.0274029514      20.8883896311       6.2158987364 1 1 1
C                 19.6515854733      17.5729587188       6.2158435904 1 1 1
C                 23.5660220943      15.9452655283       6.2157257125 1 1 1
C                 27.8048999072      16.1869647809       6.2156095350 1 1 1
C                 31.5650269861      18.1554869122       6.2157796065 1 1 1
C                 34.1922003371      21.4830373058       6.2158792542 1 1 1
C                 35.0704255210      25.6212361528       6.2159722603 1 1 1
C                 34.5208718429      29.8492907589       6.2159267244 1 1 1
C                 33.5487228473      34.0046261483       6.2186227605 1 1 1
C                 32.1688389984      38.0205912021       6.2351202701 1 1 1
C                 30.4975112565      41.8632457541       5.6167146368 1 1 1
Al                30.5757503612      32.0590689470       2.4210701362 0 0 0
Cl                31.3710822227      31.0417662270       0.6795559304 1 1 1
Cl                31.0780391512      34.1583265674       2.3757082149 1 1 1
Cl                31.4226223478      31.0772652979       4.1586868767 1 1 1
Cl                28.4134856139      32.0055385678       2.4626702107 1 1 1
