&CONTROL
    restart_mode = 'restart'
    calculation = 'relax'
    prefix = 'ns'
    pseudo_dir = '/home/tomas.rojas_s/pseudo/'
    outdir = '/scratch/global/tomas.rojas_s/ns/axial_extraction/step_4/out'
    nstep = 200
    etot_conv_thr = 1.0D-4
    forc_conv_thr = 1.0D-3
/
&SYSTEM
    ibrav = 0
    nat = 197
    ntyp = 3
    ecutwfc = 45.0
    ecutrho = 360.0
    occupations = 'smearing'
    smearing = 'mp'
    degauss = 0.02
    vdw_corr = 'dft-d3'
/
&ELECTRONS
    conv_thr = 1.0D-8
    mixing_mode = 'local-TF'
    mixing_beta = 0.7
/
&IONS
/
&CELL
/

ATOMIC_SPECIES
C 12.011 C.pbe-n-kjpaw_psl.1.0.0.UPF
Al 26.9815385 Al.pbe-n-kjpaw_psl.1.0.0.UPF
Cl 35.45 Cl.pbe-n-kjpaw_psl.1.0.0.UPF

K_POINTS automatic
1 1 1 0 0 0

CELL_PARAMETERS angstrom
50.0 0.0 0.0
0.0 50.0 0.0
0.0 0.0 25.0
ATOMIC_POSITIONS angstrom
C                 30.9018333371      22.8321598186       9.7585012603 1 1 1
C                 30.0212360329      26.6530453946       8.8107029646 0 0 0
C                 27.0578303271      29.6743545915       8.8345959669 0 0 0
C                 22.9263832189      30.4366270367       8.8342371156 0 0 0
C                 19.1170949895      28.6327817539       8.8333767104 0 0 0
C                 17.0843898532      24.9425714516       8.8337663578 0 0 0
C                 17.5887773088      20.7571135460       8.8336293746 0 0 0
C                 20.2856327727      17.4977504215       8.8326575070 0 0 0
C                 24.2302699409      15.9523962864       8.8311496717 0 0 0
C                 28.4535641196      16.3623806894       8.8302142997 0 0 0
C                 32.0754400384      18.5658035462       8.8302267772 0 0 0
C                 34.2209335447      22.2038862261       8.8297912289 0 0 0
C                 34.0937464380      26.4295522581       8.8292196698 0 0 0
C                 32.5296204753      30.4003089760       8.8270653409 0 0 0
C                 30.8718585391      34.3351207914       8.8307891589 0 0 0
C                 29.3855198676      38.3698664414       8.8236131900 0 0 0
C                 30.8749481523      23.8918715847       9.0193138097 0 0 0
C                 29.2240523079      27.8397739570       8.8207990334 0 0 0
C                 25.7443761652      30.2199193993       8.8347887376 0 0 0
C                 21.5400984791      30.1045386606       8.8334276651 0 0 0
C                 18.1853100461      27.5542108410       8.8339359242 0 0 0
C                 16.9644181775      23.5227944629       8.8338118900 0 0 0
C                 18.2880079219      19.5158141734       8.8334716424 0 0 0
C                 21.5095030150      16.7684189204       8.8319934329 0 0 0
C                 25.6528385727      15.8758418866       8.8307367686 0 0 0
C                 29.7688107030      16.9087257366       8.8302399153 0 0 0
C                 33.0045655007      19.6444235098       8.8301189366 0 0 0
C                 34.4333149137      23.6118745408       8.8295996550 0 0 0
C                 33.6520552322      27.7832410993       8.8284059532 0 0 0
C                 31.9503396435      31.7016745042       8.8273852759 0 0 0
C                 30.3670919674      35.6686730547       8.8348515071 0 0 0
C                 28.8909843070      39.7332442584       8.7910506788 0 0 0
C                 31.2656615281      24.9508766650       9.9037151752 1 1 1
C                 28.8149622211      28.4447434955       9.9919049808 1 1 1
C                 25.0566832076      30.4510021412      10.0126572616 1 1 1
C                 20.8270595726      29.9075390108      10.0023448289 1 1 1
C                 17.7225348040      26.9796459951      10.0024490598 1 1 1
C                 16.9391480787      22.7895273892      10.0058174489 1 1 1
C                 18.6588604939      18.8815725247      10.0044946941 1 1 1
C                 22.1418133779      16.3984597631      10.0042697660 1 1 1
C                 26.3850833307      15.8336572268      10.0033774991 1 1 1
C                 30.4476082987      17.1900258133      10.0019408184 1 1 1
C                 33.5047044464      20.1936565800       9.9937017224 1 1 1
C                 34.5886657953      24.3312798394       9.9918707944 1 1 1
C                 33.4553408596      28.4697861290      10.0121529455 1 1 1
C                 31.6566480164      32.3682948579      10.0164287265 1 1 1
C                 30.1198784173      36.3577435340       9.9975362503 1 1 1
C                 28.5352291963      40.4604886057       9.9195687203 1 1 1
C                 30.7045993696      26.2328105025       9.9220563254 1 1 1
C                 27.7265845340      29.3472055904      10.0018035849 1 1 1
C                 23.6448215027      30.5663866692      10.0098560413 1 1 1
C                 19.6164663346      29.1724680701      10.0025686442 1 1 1
C                 17.1753074203      25.6735576965      10.0036342992 1 1 1
C                 17.2494957492      21.4084376190      10.0057783703 1 1 1
C                 19.6535640525      17.8746146004      10.0036470595 1 1 1
C                 23.4974101254      15.9923879681      10.0036651850 1 1 1
C                 27.7795012403      16.0757631616      10.0033502730 1 1 1
C                 31.5980688033      18.0136872782      10.0024269536 1 1 1
C                 34.1257819383      21.4669881193       9.9908289561 1 1 1
C                 34.4086711416      25.7380220395       9.9883658073 1 1 1
C                 32.8763032723      29.7604424058      10.0113386398 1 1 1
C                 31.1191185213      33.6747736027      10.0255507606 1 1 1
C                 29.6064095427      37.6495355934       9.9698761625 1 1 1
C                 28.2464656038      41.7405740018      10.5175793721 1 1 1
C                 31.2794374575      22.8508892899      11.1403079695 1 1 1
C                 30.3626138968      26.8957514500      11.1824008379 1 1 1
C                 27.1026993921      29.7272892796      11.2411637453 1 1 1
C                 22.8950143096      30.5136557495      11.2409888867 1 1 1
C                 19.0273021342      28.7040244165      11.2337577899 1 1 1
C                 16.9843906054      24.9512475831      11.2370736733 1 1 1
C                 17.4983158423      20.7039054934      11.2383404344 1 1 1
C                 20.2221372565      17.3914915610      11.2364753740 1 1 1
C                 24.2250412092      15.8314567150      11.2367923064 1 1 1
C                 28.5054089404      16.2507651458      11.2360093648 1 1 1
C                 32.1819430646      18.4882367522      11.2306800310 1 1 1
C                 34.4113651587      22.1627400000      11.2187459048 1 1 1
C                 34.2789077224      26.4548270125      11.2289022275 1 1 1
C                 32.5856539952      30.4317334348      11.2529351889 1 1 1
C                 30.8616150010      34.3821397348      11.2620799801 1 1 1
C                 29.2099213805      38.2920135687      11.1710510913 1 1 1
C                 31.6237005894      24.3390092460      11.1236366977 1 1 1
C                 29.4223079636      27.9618391606      11.2164699686 1 1 1
C                 25.7851106318      30.2596804117      11.2435998017 1 1 1
C                 21.5105739898      30.1994161201      11.2366510884 1 1 1
C                 18.0992182110      27.6277785465      11.2336248989 1 1 1
C                 16.8697931862      23.5348587956      11.2380806492 1 1 1
C                 18.1883930111      19.4618685221      11.2376617041 1 1 1
C                 21.4438424970      16.6662009964      11.2366863210 1 1 1
C                 25.6435387363      15.7531712974      11.2367296281 1 1 1
C                 29.8160569388      16.7988084930      11.2356254567 1 1 1
C                 33.1212925944      19.5550705745      11.2262314929 1 1 1
C                 34.6400141404      23.5693709189      11.2178285024 1 1 1
C                 33.8021790467      27.7928466929      11.2382685674 1 1 1
C                 31.9774048435      31.7114348651      11.2582807353 1 1 1
C                 30.3497576816      35.6991285925      11.2579392851 1 1 1
C                 28.6124150982      39.5274174081      11.0666753867 1 1 1
C                 31.1922072294      24.9054392592      12.3127771307 1 1 1
C                 28.8878297166      28.4431613144      12.4646890889 1 1 1
C                 25.0625187244      30.4307927918      12.4694026532 1 1 1
C                 20.8098071537      29.9418562644      12.4646229858 1 1 1
C                 17.6847568097      27.0108827236      12.4637984079 1 1 1
C                 16.8951226205      22.7935536149      12.4685210568 1 1 1
C                 18.6050470442      18.8473207946      12.4673888513 1 1 1
C                 22.1058028481      16.3309041669      12.4666717737 1 1 1
C                 26.3863267512      15.7544571417      12.4667111096 1 1 1
C                 30.4870890366      17.1258386197      12.4638429446 1 1 1
C                 33.5777347027      20.1488949535      12.4510731833 1 1 1
C                 34.6938857872      24.3012456562      12.4491001960 1 1 1
C                 33.5562321170      28.4754397834      12.4747895235 1 1 1
C                 31.7020348681      32.4001650539      12.4936061434 1 1 1
C                 30.0655619096      36.4179741323      12.4756388075 1 1 1
C                 28.1746493979      40.1814976994      12.1904369457 1 1 1
C                 30.6718197057      26.2079829823      12.4069283404 1 1 1
C                 27.7530852882      29.3395832306      12.4663735418 1 1 1
C                 23.6311192250      30.5630938307      12.4704726255 1 1 1
C                 19.5740149375      29.2031043753      12.4642924017 1 1 1
C                 17.1337298800      25.6795951741      12.4662569235 1 1 1
C                 17.2060979131      21.3864392955      12.4686245846 1 1 1
C                 19.6135578382      17.8176845030      12.4665399599 1 1 1
C                 23.4865599203      15.9169650263      12.4666358559 1 1 1
C                 27.8064819089      16.0022210044      12.4662589342 1 1 1
C                 31.6609595792      17.9636771069      12.4616922448 1 1 1
C                 34.2244764985      21.4393373119      12.4463540375 1 1 1
C                 34.5101399993      25.7309505130      12.4521127361 1 1 1
C                 32.9409104505      29.7732787966      12.4805824271 1 1 1
C                 31.1454892111      33.7227336921      12.4991736172 1 1 1
C                 29.4902582023      37.7367996585      12.4497683058 1 1 1
C                 28.0465491022      41.6619215112      11.8608718116 1 1 1
C                 30.8635550672      22.5997466272      12.4184879448 1 1 1
C                 30.1305975866      26.6426540834      13.6722695414 1 1 1
C                 27.1039524171      29.7327774416      13.6981393470 1 1 1
C                 22.8789489423      30.5612117017      13.7055675059 1 1 1
C                 18.9557242994      28.7634869196      13.6981159205 1 1 1
C                 16.9001862828      24.9599446382      13.7014053418 1 1 1
C                 17.4170391287      20.6587098420      13.7022249016 1 1 1
C                 20.1666100820      17.2995002051      13.6995722235 1 1 1
C                 24.2183333082      15.7215856067      13.6999069635 1 1 1
C                 28.5510557163      16.1512412183      13.6985862427 1 1 1
C                 32.2685298133      18.4237385485      13.6916276341 1 1 1
C                 34.5167783321      22.1359821647      13.6782631509 1 1 1
C                 34.3773624342      26.4603759203      13.6905368668 1 1 1
C                 32.6436425553      30.4539923306      13.7189923315 1 1 1
C                 30.8934298527      34.4472248520      13.7328616012 1 1 1
C                 29.2497090027      38.5527482883      13.6538556990 1 1 1
C                 30.9065387600      23.7831576818      13.2244157323 1 1 1
C                 29.3553550929      27.8291799977      13.7108997626 1 1 1
C                 25.8001139491      30.2843489799      13.7012865736 1 1 1
C                 21.4924519545      30.2648773343      13.7003703589 1 1 1
C                 18.0297785072      27.6866680611      13.6967939085 1 1 1
C                 16.7844384787      23.5438648881      13.7022618671 1 1 1
C                 18.1018668400      19.4140004991      13.7012931857 1 1 1
C                 21.3865563551      16.5714470200      13.6996472150 1 1 1
C                 25.6370549650      15.6426381481      13.7000571919 1 1 1
C                 29.8613136241      16.7020463437      13.6978292197 1 1 1
C                 33.2083544430      19.4906510434      13.6867081119 1 1 1
C                 34.7420725886      23.5392777018      13.6788570067 1 1 1
C                 33.8989476198      27.7932378356      13.7016553512 1 1 1
C                 32.0364154929      31.7307161357      13.7282086170 1 1 1
C                 30.3859433193      35.7707721155      13.7272214686 1 1 1
C                 28.6788127564      39.8551872929      13.4924218651 1 1 1
C                 30.5416459386      24.4109974887      14.4167607464 1 1 1
C                 28.7378303734      28.4189869760      14.8196512312 1 1 1
C                 24.9677116156      30.5082550788      14.7995285689 1 1 1
C                 20.6685974203      29.9676569858      14.7909031064 1 1 1
C                 17.5500231612      26.9596876985      14.7925623720 1 1 1
C                 16.8135088463      22.6733938618      14.7985504768 1 1 1
C                 18.5917299850      18.6943954672      14.7976886106 1 1 1
C                 22.1648821762      16.1855545539      14.7971912100 1 1 1
C                 26.5062905705      15.6520435178      14.7971431370 1 1 1
C                 30.6407792238      17.0916768169      14.7931361422 1 1 1
C                 33.7295521623      20.1909451947      14.7796585798 1 1 1
C                 34.7757057099      24.3958794911      14.7829627310 1 1 1
C                 33.5859725558      28.5741535426      14.8178329628 1 1 1
C                 31.7193670816      32.5128148407      14.8434126003 1 1 1
C                 30.1305609976      36.6510675056      14.7854050824 1 1 1
C                 28.8030661457      41.2129201964      13.9725152398 1 1 1
C                 30.2783708686      25.6217393260      14.6474966420 1 1 1
C                 27.8136292688      29.2453176107      14.7973426291 1 1 1
C                 23.7334513261      30.6353131120      14.8117269828 1 1 1
C                 19.5990490428      29.3374201435      14.8021024007 1 1 1
C                 17.0758658350      25.8121430492      14.7989082295 1 1 1
C                 17.0800743980      21.4605687801      14.7996838230 1 1 1
C                 19.4593558145      17.8059873646      14.7963402142 1 1 1
C                 23.3545757528      15.8292736812      14.7959218759 1 1 1
C                 27.7297595276      15.8650086355      14.7949723928 1 1 1
C                 31.6509502097      17.8141579857      14.7895279620 1 1 1
C                 34.2812281555      21.3037816265      14.7777232614 1 1 1
C                 34.6132506623      25.6265351292      14.7874640012 1 1 1
C                 33.0482159453      29.6920537973      14.8170011521 1 1 1
C                 31.2434376747      33.6582853354      14.8290700685 1 1 1
C                 29.6851010247      37.8120359871      14.7615492831 1 1 1
C                 28.3613354396      42.1232068516      13.1842653151 1 1 1
Al                26.5757503612      34.0590689470      14.2210701362 0 0 0
Cl                27.6418429138      33.2277232629      12.5095568005 1 1 1
Cl                26.7845068560      36.2089404563      14.2698505802 1 1 1
Cl                27.4084871973      33.1557441899      15.9999319203 1 1 1
Cl                24.4595050519      33.6663261706      14.0206761104 1 1 1
