&CONTROL
    restart_mode = 'restart'
    calculation = 'relax'
    prefix = 'ns'
    pseudo_dir = '/home/tomas.rojas_s/pseudo/'
    outdir = '/scratch/global/tomas.rojas_s/ns/extraction_path/step_6/out'
    nstep = 200
    etot_conv_thr = 1.0D-4
    forc_conv_thr = 1.0D-3
/
&SYSTEM
    ibrav = 0
    nat = 197
    ntyp = 3
    ecutwfc = 45.0
    ecutrho = 360.0
    occupations = 'smearing'
    smearing = 'mp'
    degauss = 0.02
    vdw_corr = 'dft-d3'
/
&ELECTRONS
    conv_thr = 1.0D-8
    mixing_mode = 'local-TF'
    mixing_beta = 0.7
/
&IONS
/
&CELL
/

ATOMIC_SPECIES
C 12.011 C.pbe-n-kjpaw_psl.1.0.0.UPF
Al 26.9815385 Al.pbe-n-kjpaw_psl.1.0.0.UPF
Cl 35.45 Cl.pbe-n-kjpaw_psl.1.0.0.UPF

K_POINTS automatic
1 1 3 0 0 0

CELL_PARAMETERS angstrom
50.00000000000000 0.00000000000000 0.00000000000000
0.00000000000000 50.00000000000000 0.00000000000000
0.00000000000000 0.00000000000000 7.40451720000000

ATOMIC_POSITIONS angstrom
C                 32.1167901863      24.6481533607       1.1320247956 1 1 1
C                 29.7022148977      27.7500316599       7.4258631838 1 1 1
C                 25.8593462525      29.6204040338       0.0458210758 1 1 1
C                 21.6401483144      29.9585948435       0.0456183002 1 1 1
C                 17.9426944218      27.9486455056       0.0447616105 1 1 1
C                 16.2744883688      24.0878434303       0.0446343237 1 1 1
C                 17.2002363206      19.9733269236       0.0445832726 1 1 1
C                 20.2239128145      17.0204347400       0.0445545432 1 1 1
C                 24.3096708084      15.8852603158       0.0446770562 1 1 1
C                 28.4998360426      16.5746607581       0.0447028957 1 1 1
C                 32.0732071278      18.8741388672       0.0448965923 1 1 1
C                 34.6174061377      22.2826138155       0.0450476503 1 1 1
C                 35.8336342752      26.3548117417       0.0457501733 1 1 1
C                 35.9004592590      30.6166252626       0.0450888259 1 1 1
C                 35.0112610342      34.7792831323       0.0493635706 1 1 1
C                 33.2005366392      38.6790755218       7.4411475668 1 1 1
C                 31.7606146901      25.7325960744       0.2265200691 1 1 1
C                 28.4731321614      28.4857559804       7.4353645788 1 1 1
C                 24.4750692362      29.9557497541       0.0459290632 1 1 1
C                 20.2711343303      29.5603450668       0.0451685455 1 1 1
C                 17.1050728709      26.7953450566       0.0448082007 1 1 1
C                 16.3022998936      22.6633051264       0.0446468928 1 1 1
C                 18.0204557080      18.8085655363       0.0445388894 1 1 1
C                 21.5214351708      16.4329578726       0.0447113611 1 1 1
C                 25.7336974874      15.9186573398       0.0445961803 1 1 1
C                 29.7886884428      17.1807438130       0.0447532807 1 1 1
C                 33.0473902434      19.9129811310       0.0451125749 1 1 1
C                 35.1875453822      23.5874439772       0.0454203567 1 1 1
C                 35.9571117890      27.7732797349       0.0455358817 1 1 1
C                 35.7184525877      32.0284304882       0.0454331663 1 1 1
C                 34.4830148944      36.1041601502       0.0527768265 1 1 1
C                 32.4997406259      39.9495388288       7.4087417459 1 1 1
C                 31.4370979240      26.7048675509       1.2708673154 1 1 1
C                 27.8535822992      28.8445868035       1.2680152777 1 1 1
C                 23.7726495477      30.0501319816       1.2798452666 1 1 1
C                 19.6251515916      29.2583975206       1.2785885850 1 1 1
C                 16.7884573199      26.1566475881       1.2784504491 1 1 1
C                 16.4252799228      21.9606142428       1.2785578705 1 1 1
C                 18.5087508725      18.2887966107       1.2785556316 1 1 1
C                 22.2012557089      16.2180377788       1.2785904960 1 1 1
C                 26.4407372113      16.0104005316       1.2786160612 1 1 1
C                 30.4004070502      17.5465809117       1.2785625196 1 1 1
C                 33.4906149633      20.4712796899       1.2789394537 1 1 1
C                 35.4311613338      24.2562540196       1.2793501491 1 1 1
C                 35.9834036972      28.4836271068       1.2791408033 1 1 1
C                 35.5945358246      32.7263002800       1.2793374886 1 1 1
C                 34.1874602784      36.7721787174       1.2802115647 1 1 1
C                 32.1540062212      40.6075784462       1.2798782114 1 1 1
C                 30.3238065927      27.5464870782       1.2657504430 1 1 1
C                 26.5407258213      29.3973081853       1.2741476626 1 1 1
C                 22.3466503179      30.0542148167       1.2793086691 1 1 1
C                 18.4533421277      28.4464290004       1.2783746981 1 1 1
C                 16.3711746964      24.7942288147       1.2784880060 1 1 1
C                 16.8769471316      20.6092831282       1.2784416784 1 1 1
C                 19.6158550893      17.3924889335       1.2786161591 1 1 1
C                 23.5992563739      15.9445291456       1.2786146828 1 1 1
C                 27.8267906470      16.3397356153       1.2785980230 1 1 1
C                 31.5434083853      18.3973921232       1.2786258822 1 1 1
C                 34.2841419244      21.6548943726       1.2793789481 1 1 1
C                 35.7419926057      25.6475805369       1.2790539310 1 1 1
C                 35.9537842356      29.9085870732       1.2789364980 1 1 1
C                 35.2497625248      34.1078598138       1.2798443135 1 1 1
C                 33.5373058174      38.0527229379       1.2799189063 1 1 1
C                 31.5543690829      41.8078395447       1.2814362989 1 1 1
C                 32.3987486624      24.9296830005       2.5137384870 1 1 1
C                 29.7501231563      27.9483197953       2.5136464101 1 1 1
C                 25.8713909665      29.6325416188       2.5131904602 1 1 1
C                 21.6387847085      29.9596110051       2.5129305378 1 1 1
C                 17.9431897363      27.9479408288       2.5126696476 1 1 1
C                 16.2741956867      24.0873481728       2.5127114284 1 1 1
C                 17.2000560353      19.9731980286       2.5126763062 1 1 1
C                 20.2241474184      17.0203743450       2.5126427746 1 1 1
C                 24.3097193483      15.8852908934       2.5126801061 1 1 1
C                 28.4997702652      16.5752258199       2.5125412883 1 1 1
C                 32.0727239775      18.8746794061       2.5124424067 1 1 1
C                 34.6378955367      22.2748148035       2.5125009210 1 1 1
C                 35.8459931772      26.3524221280       2.5125025428 1 1 1
C                 35.9020834885      30.6165536822       2.5129577851 1 1 1
C                 35.0428935426      34.7910365876       2.5101858733 1 1 1
C                 33.2022082966      38.6794513493       2.5230077501 1 1 1
C                 31.9863354503      26.3357067229       2.5137063926 1 1 1
C                 28.4911033464      28.5690367119       2.5135277653 1 1 1
C                 24.4838404845      29.9592919208       2.5130874896 1 1 1
C                 20.2705994003      29.5625683984       2.5128013335 1 1 1
C                 17.1059746072      26.7953196918       2.5126912782 1 1 1
C                 16.3025313791      22.6632835790       2.5126873147 1 1 1
C                 18.0202340225      18.8085930017       2.5126605539 1 1 1
C                 21.5215299528      16.4332114479       2.5126825752 1 1 1
C                 25.7335904614      15.9184520271       2.5126405770 1 1 1
C                 29.7894604440      17.1794162702       2.5126359641 1 1 1
C                 33.0469780322      19.9133699542       2.5123627956 1 1 1
C                 35.2192894544      23.5755814729       2.5124350913 1 1 1
C                 35.9649220740      27.7717867730       2.5122394946 1 1 1
C                 35.7227016635      32.0293576061       2.5131307902 1 1 1
C                 34.5099609407      36.1148168549       2.5065188798 1 1 1
C                 32.5016809922      39.9500057231       2.5552616561 1 1 1
C                 31.4374714310      26.7053418993       3.7565947277 1 1 1
C                 27.8548293926      28.8471226046       3.7588295186 1 1 1
C                 23.7727175758      30.0502161836       3.7462518940 1 1 1
C                 19.6253509744      29.2580752715       3.7470233549 1 1 1
C                 16.7883489141      26.1566488281       3.7468963721 1 1 1
C                 16.4253014115      21.9606184459       3.7469033620 1 1 1
C                 18.5088615213      18.2888155940       3.7467965092 1 1 1
C                 22.2012812363      16.2180685538       3.7469580460 1 1 1
C                 26.4408834549      16.0105926797       3.7468412195 1 1 1
C                 30.3999031421      17.5477446987       3.7469967475 1 1 1
C                 33.4907508597      20.4715935882       3.7465889827 1 1 1
C                 35.4306162556      24.2572824945       3.7467968913 1 1 1
C                 35.9836946839      28.4845429532       3.7468627983 1 1 1
C                 35.5917021878      32.7294470183       3.7464958778 1 1 1
C                 34.2093923551      36.7466933647       3.7365119438 1 1 1
C                 32.1818766440      40.4955420419       3.7964332288 1 1 1
C                 30.3246321845      27.5476793102       3.7616858699 1 1 1
C                 26.5413594560      29.3990006778       3.7523278446 1 1 1
C                 22.3467555645      30.0539768516       3.7465656027 1 1 1
C                 18.4533661968      28.4463242119       3.7470858164 1 1 1
C                 16.3710841496      24.7942796209       3.7468923741 1 1 1
C                 16.8770461281      20.6093413941       3.7469413472 1 1 1
C                 19.6158803918      17.3926032814       3.7467562062 1 1 1
C                 23.5991035976      15.9445625976       3.7469907650 1 1 1
C                 27.8265719109      16.3399750144       3.7469248008 1 1 1
C                 31.5433235016      18.3971471323       3.7468906333 1 1 1
C                 34.2834152207      21.6546123121       3.7462101745 1 1 1
C                 35.7425553021      25.6469377081       3.7472418700 1 1 1
C                 35.9523472504      29.9075826252       3.7471217688 1 1 1
C                 35.2528157972      34.1136687651       3.7452192346 1 1 1
C                 33.5652070394      38.0124218845       3.7304566726 1 1 1
C                 31.5210946694      41.6727685622       4.3483777539 1 1 1
C                 32.1167515956      24.6482152788       3.8951250603 1 1 1
C                 29.7030862236      27.7513538913       5.0060895279 1 1 1
C                 25.8596935085      29.6213633552       4.9805728981 1 1 1
C                 21.6401924019      29.9584768218       4.9801840900 1 1 1
C                 17.9426309714      27.9487406954       4.9806862963 1 1 1
C                 16.2744486822      24.0878019873       4.9807239454 1 1 1
C                 17.2001542285      19.9734054860       4.9808397057 1 1 1
C                 20.2239313788      17.0203633108       4.9808829175 1 1 1
C                 24.3095246683      15.8851014060       4.9808667674 1 1 1
C                 28.4996815534      16.5743955395       4.9807870760 1 1 1
C                 32.0743911754      18.8727296740       4.9806143596 1 1 1
C                 34.6163104741      22.2822757345       4.9808014210 1 1 1
C                 35.8351149045      26.3539677604       4.9803889682 1 1 1
C                 35.8966458376      30.6163821908       4.9805216252 1 1 1
C                 35.0162562066      34.7817651375       4.9807324310 1 1 1
C                 33.2492347724      38.5950384251       4.9818006774 1 1 1
C                 31.7606214054      25.7328952621       4.8008202408 1 1 1
C                 28.4743609650      28.4880007439       4.9962630507 1 1 1
C                 24.4751818688      29.9560803627       4.9802327193 1 1 1
C                 20.2712018755      29.5601697881       4.9804715977 1 1 1
C                 17.1050105579      26.7954296107       4.9805293980 1 1 1
C                 16.3022623450      22.6632344722       4.9808344829 1 1 1
C                 18.0203810208      18.8085037973       4.9807085551 1 1 1
C                 21.5215361661      16.4328417721       4.9808984280 1 1 1
C                 25.7338096291      15.9184884599       4.9808542236 1 1 1
C                 29.7886995729      17.1810707613       4.9809132908 1 1 1
C                 33.0485222418      19.9126111722       4.9803392993 1 1 1
C                 35.1866471961      23.5881803631       4.9803783551 1 1 1
C                 35.9580698707      27.7739115201       4.9805937765 1 1 1
C                 35.7148001377      32.0295429187       4.9805234601 1 1 1
C                 34.4918780663      36.1032205080       4.9811986452 1 1 1
C                 32.5771924566      39.7945753963       4.9818636194 1 1 1
C                 31.3229591436      26.1136776707       6.2158525932 1 1 1
C                 27.8228356410      28.8027869851       6.2157213373 1 1 1
C                 23.7691906264      30.0451674378       6.2153020049 1 1 1
C                 19.6263643827      29.2555116699       6.2150317956 1 1 1
C                 16.7880450202      26.1565820885       6.2149295258 1 1 1
C                 16.4252140714      21.9605163159       6.2149666303 1 1 1
C                 18.5089745209      18.2886649991       6.2149022990 1 1 1
C                 22.2013865019      16.2183293053       6.2149681731 1 1 1
C                 26.4408868351      16.0108068438       6.2148224293 1 1 1
C                 30.3983009402      17.5507413290       6.2147515861 1 1 1
C                 33.4886677241      20.4716179212       6.2147771640 1 1 1
C                 35.3995405485      24.2669085147       6.2146842565 1 1 1
C                 35.9775043292      28.4849450208       6.2146735373 1 1 1
C                 35.5810683976      32.7256370890       6.2158642044 1 1 1
C                 34.1930298033      36.7394009388       6.2260882195 1 1 1
C                 32.1815699885      40.4958863999       6.1671037791 1 1 1
C                 30.2931004269      27.1950571859       6.2159434986 1 1 1
C                 26.5263401673      29.3822930775       6.2155102836 1 1 1
C                 22.3457353747      30.0512631211       6.2152044065 1 1 1
C                 18.4535877605      28.4464767630       6.2149443556 1 1 1
C                 16.3715965148      24.7944431092       6.2149478108 1 1 1
C                 16.8770825750      20.6095844388       6.2149474427 1 1 1
C                 19.6158421186      17.3927149435       6.2148710798 1 1 1
C                 23.5991285748      15.9448979074       6.2149911855 1 1 1
C                 27.8265352007      16.3396735557       6.2149242709 1 1 1
C                 31.5424276162      18.3986433808       6.2146668582 1 1 1
C                 34.2727580994      21.6595173998       6.2147505241 1 1 1
C                 35.7240235486      25.6520299267       6.2146753641 1 1 1
C                 35.9483223859      29.9083415072       6.2143773123 1 1 1
C                 35.2272668500      34.1056457096       6.2172339582 1 1 1
C                 33.5599500589      38.0104036435       6.2332546999 1 1 1
C                 31.5199915955      41.6723820331       5.6140511739 1 1 1
Al                32.5757503612      31.0590689470       2.4210701362 0 0 0
Cl                33.3532981611      30.0176663925       0.6889524621 1 1 1
Cl                33.1191531685      33.1484281058       2.3771170781 1 1 1
Cl                33.3678470370      30.0746799988       4.1760553713 1 1 1
Cl                30.4103702526      31.0707932169       2.4305709013 1 1 1
