&CONTROL
    restart_mode = 'restart'
    calculation = 'relax'
    prefix = 'ns'
    pseudo_dir = '/home/tomas.rojas_s/pseudo/'
    outdir = '/scratch/global/tomas.rojas_s/ns/axial_extraction/step_5/out'
    nstep = 200
    etot_conv_thr = 1.0D-4
    forc_conv_thr = 1.0D-3
/
&SYSTEM
    ibrav = 0
    nat = 197
    ntyp = 3
    ecutwfc = 45.0
    ecutrho = 360.0
    occupations = 'smearing'
    smearing = 'mp'
    degauss = 0.02
    vdw_corr = 'dft-d3'
/
&ELECTRONS
    conv_thr = 1.0D-8
    mixing_mode = 'local-TF'
    mixing_beta = 0.7
/
&IONS
/
&CELL
/

ATOMIC_SPECIES
C 12.011 C.pbe-n-kjpaw_psl.1.0.0.UPF
Al 26.9815385 Al.pbe-n-kjpaw_psl.1.0.0.UPF
Cl 35.45 Cl.pbe-n-kjpaw_psl.1.0.0.UPF

K_POINTS automatic
1 1 1 0 0 0

CELL_PARAMETERS angstrom
50.0 0.0 0.0
0.0 50.0 0.0
0.0 0.0 25.0
ATOMIC_POSITIONS angstrom
C                 30.8849846583      22.8402050420       9.7698464721 1 1 1
C                 30.0212360329      26.6530453946       8.8107029646 0 0 0
C                 27.0578303271      29.6743545915       8.8345959669 0 0 0
C                 22.9263832189      30.4366270367       8.8342371156 0 0 0
C                 19.1170949895      28.6327817539       8.8333767104 0 0 0
C                 17.0843898532      24.9425714516       8.8337663578 0 0 0
C                 17.5887773088      20.7571135460       8.8336293746 0 0 0
C                 20.2856327727      17.4977504215       8.8326575070 0 0 0
C                 24.2302699409      15.9523962864       8.8311496717 0 0 0
C                 28.4535641196      16.3623806894       8.8302142997 0 0 0
C                 32.0754400384      18.5658035462       8.8302267772 0 0 0
C                 34.2209335447      22.2038862261       8.8297912289 0 0 0
C                 34.0937464380      26.4295522581       8.8292196698 0 0 0
C                 32.5296204753      30.4003089760       8.8270653409 0 0 0
C                 30.8718585391      34.3351207914       8.8307891589 0 0 0
C                 29.3855198676      38.3698664414       8.8236131900 0 0 0
C                 30.8749481523      23.8918715847       9.0193138097 0 0 0
C                 29.2240523079      27.8397739570       8.8207990334 0 0 0
C                 25.7443761652      30.2199193993       8.8347887376 0 0 0
C                 21.5400984791      30.1045386606       8.8334276651 0 0 0
C                 18.1853100461      27.5542108410       8.8339359242 0 0 0
C                 16.9644181775      23.5227944629       8.8338118900 0 0 0
C                 18.2880079219      19.5158141734       8.8334716424 0 0 0
C                 21.5095030150      16.7684189204       8.8319934329 0 0 0
C                 25.6528385727      15.8758418866       8.8307367686 0 0 0
C                 29.7688107030      16.9087257366       8.8302399153 0 0 0
C                 33.0045655007      19.6444235098       8.8301189366 0 0 0
C                 34.4333149137      23.6118745408       8.8295996550 0 0 0
C                 33.6520552322      27.7832410993       8.8284059532 0 0 0
C                 31.9503396435      31.7016745042       8.8273852759 0 0 0
C                 30.3670919674      35.6686730547       8.8348515071 0 0 0
C                 28.8909843070      39.7332442584       8.7910506788 0 0 0
C                 31.2574768301      24.9517415687       9.9124845773 1 1 1
C                 28.8141852983      28.4498019213       9.9905781190 1 1 1
C                 25.0606081238      30.4771977775      10.0067328810 1 1 1
C                 20.8345558646      29.9063013171      10.0061053775 1 1 1
C                 17.7390161158      26.9732993298      10.0083411032 1 1 1
C                 16.9367685281      22.7876137807      10.0056261813 1 1 1
C                 18.6570481891      18.8787268318      10.0036265078 1 1 1
C                 22.1417861403      16.3953732352      10.0032267318 1 1 1
C                 26.3854390569      15.8328322093      10.0029714811 1 1 1
C                 30.4484596895      17.1887485303      10.0021722756 1 1 1
C                 33.5015119417      20.1957358822       9.9943535955 1 1 1
C                 34.5894500622      24.3329791417       9.9899145682 1 1 1
C                 33.4880150995      28.4818439165      10.0082587240 1 1 1
C                 31.7275070332      32.3954534371      10.0164259702 1 1 1
C                 30.1309363318      36.3644305170       9.9976104673 1 1 1
C                 28.6166223843      40.4867194357       9.9243862763 1 1 1
C                 30.6987940319      26.2357312202       9.9276347521 1 1 1
C                 27.7278777019      29.3550852785      10.0005208277 1 1 1
C                 23.6485781846      30.5899750764      10.0036125382 1 1 1
C                 19.6270981156      29.1661601782      10.0050040720 1 1 1
C                 17.1874354187      25.6687457329      10.0078535905 1 1 1
C                 17.2454211728      21.4059517094      10.0053150182 1 1 1
C                 19.6533236896      17.8730118553      10.0036131990 1 1 1
C                 23.4974660983      15.9896922003      10.0032389438 1 1 1
C                 27.7795382168      16.0758670712      10.0032863185 1 1 1
C                 31.5993581988      18.0122197199      10.0025064523 1 1 1
C                 34.1210425724      21.4693506311       9.9917808097 1 1 1
C                 34.4171996579      25.7399484446       9.9854434796 1 1 1
C                 32.9185665354      29.7768519173      10.0074024497 1 1 1
C                 31.1894005496      33.7024236256      10.0245121266 1 1 1
C                 29.6011250069      37.6515418176       9.9715238895 1 1 1
C                 28.4413169353      41.7965982234      10.5025307801 1 1 1
C                 31.2543811141      22.8588548025      11.1544073446 1 1 1
C                 30.3557035831      26.9048052071      11.1865806723 1 1 1
C                 27.1092493843      29.7583885282      11.2364920621 1 1 1
C                 22.9021411684      30.5477590451      11.2360869333 1 1 1
C                 19.0543059008      28.6912515708      11.2408825372 1 1 1
C                 16.9995625676      24.9452060368      11.2414679301 1 1 1
C                 17.4921850218      20.6978631817      11.2368502820 1 1 1
C                 20.2222416237      17.3881361252      11.2358530847 1 1 1
C                 24.2254478336      15.8273687867      11.2360432053 1 1 1
C                 28.5054927573      16.2507848831      11.2361020731 1 1 1
C                 32.1829029155      18.4876606858      11.2309706553 1 1 1
C                 34.4032157036      22.1674688354      11.2193797989 1 1 1
C                 34.3108022137      26.4643673953      11.2230427875 1 1 1
C                 32.6894654424      30.4724940720      11.2479362237 1 1 1
C                 30.9782793852      34.4291371062      11.2592436565 1 1 1
C                 29.2483091660      38.3135322411      11.1791189159 1 1 1
C                 31.6079629758      24.3444363270      11.1362248544 1 1 1
C                 29.4174266090      27.9733822991      11.2182979333 1 1 1
C                 25.7953374091      30.3031762878      11.2361121410 1 1 1
C                 21.5222962456      30.2113190113      11.2358030600 1 1 1
C                 18.1276528339      27.6141041459      11.2412032923 1 1 1
C                 16.8741747013      23.5298823616      11.2400845751 1 1 1
C                 18.1836310179      19.4563324392      11.2363610015 1 1 1
C                 21.4437595354      16.6619001499      11.2356444302 1 1 1
C                 25.6439211543      15.7505783542      11.2360151453 1 1 1
C                 29.8163834279      16.7983218269      11.2360415134 1 1 1
C                 33.1197784024      19.5569076152      11.2272568316 1 1 1
C                 34.6362500642      23.5730370540      11.2165908194 1 1 1
C                 33.8558927700      27.8101622000      11.2311630023 1 1 1
C                 32.1004475507      31.7612902356      11.2552880419 1 1 1
C                 30.4306370984      35.7318423468      11.2564402633 1 1 1
C                 28.6876371744      39.5688584647      11.0840177420 1 1 1
C                 31.1759939451      24.9171555088      12.3235129676 1 1 1
C                 28.8820517626      28.4652067995      12.4649853111 1 1 1
C                 25.0746073708      30.4964947922      12.4593288078 1 1 1
C                 20.8359567330      29.9444984232      12.4689404879 1 1 1
C                 17.7211408284      26.9953294797      12.4726629121 1 1 1
C                 16.8959832286      22.7856321011      12.4690779442 1 1 1
C                 18.6020178440      18.8410360152      12.4657717576 1 1 1
C                 22.1064207936      16.3263086395      12.4653248208 1 1 1
C                 26.3869139589      15.7524386992      12.4659614222 1 1 1
C                 30.4877372448      17.1250951768      12.4643246862 1 1 1
C                 33.5732097918      20.1531750581      12.4523527295 1 1 1
C                 34.6976891176      24.3077149241      12.4460251670 1 1 1
C                 33.6542491205      28.5092268002      12.4657747581 1 1 1
C                 31.8884156034      32.4767411707      12.4877985735 1 1 1
C                 30.2075684794      36.4744792132      12.4740596796 1 1 1
C                 28.3763849047      40.2825391644      12.2182474621 1 1 1
C                 30.6619204009      26.2226296147      12.4149354675 1 1 1
C                 27.7545165112      29.3727032675      12.4643167061 1 1 1
C                 23.6432464636      30.6247865968      12.4621849216 1 1 1
C                 19.6100439643      29.1891254541      12.4705989935 1 1 1
C                 17.1602139263      25.6688677297      12.4725101061 1 1 1
C                 17.1998001188      21.3776023359      12.4677641899 1 1 1
C                 19.6134644131      17.8138305703      12.4655603548 1 1 1
C                 23.4869366252      15.9113393963      12.4655840419 1 1 1
C                 27.8067516722      16.0017509829      12.4660585625 1 1 1
C                 31.6620513136      17.9624555626      12.4617960108 1 1 1
C                 34.2136764196      21.4468488371      12.4480832920 1 1 1
C                 34.5415023384      25.7409980210      12.4463479626 1 1 1
C                 33.0753347865      29.8241810679      12.4720074755 1 1 1
C                 31.3376367702      33.8008766840      12.4938503599 1 1 1
C                 29.6177925310      37.7863859485      12.4516774224 1 1 1
C                 28.3243679546      41.7611472803      11.8559463405 1 1 1
C                 30.8292817420      22.6143787489      12.4301883080 1 1 1
C                 30.1178850721      26.6642650473      13.6785791717 1 1 1
C                 27.1083248245      29.7858992888      13.6939980926 1 1 1
C                 22.9001797136      30.6265292586      13.7044834390 1 1 1
C                 19.0035226090      28.7422098530      13.7077138870 1 1 1
C                 16.9266763190      24.9477494134      13.7063123709 1 1 1
C                 17.4097451610      20.6479345122      13.7005023507 1 1 1
C                 20.1678431174      17.2966031563      13.6986531568 1 1 1
C                 24.2188806369      15.7154624452      13.6986996774 1 1 1
C                 28.5506606629      16.1530847852      13.6987251068 1 1 1
C                 32.2683101748      18.4237299474      13.6919062670 1 1 1
C                 34.5005434660      22.1467800500      13.6798090496 1 1 1
C                 34.4400471323      26.4795786669      13.6824303361 1 1 1
C                 32.8391642196      30.5310700566      13.7085333627 1 1 1
C                 31.1580867216      34.5535047001      13.7226133362 1 1 1
C                 29.5034268074      38.6488912701      13.6420210535 1 1 1
C                 30.8794638186      23.7986056963      13.2355191699 1 1 1
C                 29.3465689739      27.8562079943      13.7149139885 1 1 1
C                 25.8125824579      30.3631681473      13.6928663750 1 1 1
C                 21.5198486101      30.2868694467      13.7014777883 1 1 1
C                 18.0798846316      27.6637647045      13.7069321548 1 1 1
C                 16.7935426818      23.5341138419      13.7040142518 1 1 1
C                 18.0967938596      19.4050661937      13.6994559600 1 1 1
C                 21.3876906807      16.5681246084      13.6982284133 1 1 1
C                 25.6375755861      15.6399089061      13.6989996312 1 1 1
C                 29.8610893146      16.7036440433      13.6986545071 1 1 1
C                 33.2049043441      19.4937319437      13.6875241644 1 1 1
C                 34.7355323346      23.5482398872      13.6778471643 1 1 1
C                 34.0058677641      27.8283009370      13.6913238170 1 1 1
C                 32.2668853064      31.8238735129      13.7183029074 1 1 1
C                 30.6460326493      35.8753926386      13.7140683370 1 1 1
C                 28.9718373437      39.9672600620      13.4835285713 1 1 1
C                 30.5164835904      24.4303542086      14.4261433625 1 1 1
C                 28.7368594007      28.4586842454      14.8230228048 1 1 1
C                 24.9857415422      30.6423170576      14.7812743446 1 1 1
C                 20.7033406144      29.9698825855      14.7921156294 1 1 1
C                 17.6051169805      26.9336586320      14.8025877928 1 1 1
C                 16.8164798770      22.6624841266      14.7989531992 1 1 1
C                 18.5898199279      18.6879681156      14.7961318880 1 1 1
C                 22.1654803002      16.1804611868      14.7955437294 1 1 1
C                 26.5063880299      15.6518082106      14.7962923832 1 1 1
C                 30.6404635673      17.0931677492      14.7941582989 1 1 1
C                 33.7188004052      20.1979972637      14.7813891352 1 1 1
C                 34.7863349155      24.4065770368      14.7806128374 1 1 1
C                 33.7474160924      28.6322608079      14.8051811828 1 1 1
C                 32.0156704116      32.6342901480      14.8295799254 1 1 1
C                 30.4905729422      36.7930835889      14.7584520696 1 1 1
C                 29.2179796320      41.3255045956      13.9109599902 1 1 1
C                 30.2579927855      25.6427713950      14.6540195977 1 1 1
C                 27.8211836865      29.2961253742      14.7893333076 1 1 1
C                 23.7454239973      30.7614131684      14.8138329096 1 1 1
C                 19.6443223340      29.3214079295      14.8111253214 1 1 1
C                 17.1206339554      25.7904490442      14.8076994537 1 1 1
C                 17.0760594468      21.4483112763      14.7999763115 1 1 1
C                 19.4610055647      17.8029555035      14.7957452533 1 1 1
C                 23.3546194151      15.8226186897      14.7943042347 1 1 1
C                 27.7294943346      15.8668677180      14.7950053648 1 1 1
C                 31.6513184456      17.8147742123      14.7905377159 1 1 1
C                 34.2626910593      21.3147919095      14.7792163685 1 1 1
C                 34.6593707880      25.6414303526      14.7796494181 1 1 1
C                 33.2519379597      29.7695253273      14.8035062143 1 1 1
C                 31.5615680246      33.7886168980      14.8180003919 1 1 1
C                 30.0439699073      37.9529390758      14.7309235251 1 1 1
C                 28.7739108092      42.2423489332      13.1342014714 1 1 1
Al                26.5757503612      34.0590689470      15.2210701362 0 0 0
Cl                27.9170858194      33.2749043074      13.6762021675 1 1 1
Cl                27.1330730954      36.0699087310      15.7239527440 1 1 1
Cl                26.7695982834      32.7392957719      16.9499401229 1 1 1
Cl                24.5606005869      33.9747953127      14.4516556590 1 1 1
