&CONTROL
    restart_mode = 'restart'
    calculation = 'relax'
    prefix = 'ns'
    pseudo_dir = '/home/tomas.rojas_s/pseudo/'
    outdir = '/scratch/global/tomas.rojas_s/ns/extraction_path/step_3/out'
    nstep = 200
    etot_conv_thr = 1.0D-4
    forc_conv_thr = 1.0D-3
/
&SYSTEM
    ibrav = 0
    nat = 197
    ntyp = 3
    ecutwfc = 45.0
    ecutrho = 360.0
    occupations = 'smearing'
    smearing = 'mp'
    degauss = 0.02
    vdw_corr = 'dft-d3'
/
&ELECTRONS
    conv_thr = 1.0D-8
    mixing_mode = 'local-TF'
    mixing_beta = 0.7
/
&IONS
/
&CELL
/

ATOMIC_SPECIES
C 12.011 C.pbe-n-kjpaw_psl.1.0.0.UPF
Al 26.9815385 Al.pbe-n-kjpaw_psl.1.0.0.UPF
Cl 35.45 Cl.pbe-n-kjpaw_psl.1.0.0.UPF

K_POINTS automatic
1 1 3 0 0 0

CELL_PARAMETERS angstrom
50.00000000000000 0.00000000000000 0.00000000000000
0.00000000000000 50.00000000000000 0.00000000000000
0.00000000000000 0.00000000000000 7.40451720000000

ATOMIC_POSITIONS angstrom
C                 31.5976065321      23.8105512649       1.1311508141 1 1 1
C                 29.9734815018      27.3771424535       7.4270302479 1 1 1
C                 26.3887704564      29.6546545439       0.0486200322 1 1 1
C                 22.1874750310      30.1065789581       0.0467661268 1 1 1
C                 18.4185988152      28.2270752993       0.0458776176 1 1 1
C                 16.5796527380      24.4457269526       0.0457767417 1 1 1
C                 17.3448973851      20.2962893649       0.0453452654 1 1 1
C                 20.2290283784      17.2003652257       0.0452642089 1 1 1
C                 24.2568263288      15.8760180271       0.0451879659 1 1 1
C                 28.4677044734      16.4241472917       0.0454541822 1 1 1
C                 32.1064469950      18.6193639129       0.0459297213 1 1 1
C                 34.5202214700      22.1060339126       0.0462655653 1 1 1
C                 34.9346391232      26.3118734015       0.0470270171 1 1 1
C                 33.8322154259      30.4357250349       0.0461131235 1 1 1
C                 32.5754489693      34.5167188151       0.0504868348 1 1 1
C                 31.4761644198      38.6773446177       7.4428681205 1 1 1
C                 31.5117793380      24.9493646038       0.2306726182 1 1 1
C                 28.8866643851      28.3038298547       7.4360145223 1 1 1
C                 25.0197502965      30.0403945184       0.0484505230 1 1 1
C                 20.8085796051      29.7461814211       0.0464020484 1 1 1
C                 17.5288034975      27.1141793384       0.0459200620 1 1 1
C                 16.5526482233      23.0207544155       0.0456444869 1 1 1
C                 18.1151247172      19.0971310161       0.0452445827 1 1 1
C                 21.4949460068      16.5460895883       0.0452506991 1 1 1
C                 25.6814374507      15.8572321117       0.0452447765 1 1 1
C                 29.7761798740      16.9879499782       0.0455174794 1 1 1
C                 33.0828490810      19.6569558523       0.0464869611 1 1 1
C                 34.9093916356      23.4765237298       0.0466660882 1 1 1
C                 34.6523117727      27.7075289931       0.0466866156 1 1 1
C                 33.3927067910      31.7910725616       0.0465449702 1 1 1
C                 32.1994848938      35.8927652625       0.0547556027 1 1 1
C                 31.1296786088      40.0862954700       7.4106892452 1 1 1
C                 31.4360040939      25.9796284853       1.2711610770 1 1 1
C                 28.3242808092      28.7438173337       1.2706895161 1 1 1
C                 24.3184868391      30.1358036970       1.2821502150 1 1 1
C                 20.1532961745      29.4647335334       1.2796352060 1 1 1
C                 17.1835489563      26.4905145817       1.2798275389 1 1 1
C                 16.6467125549      22.3130114941       1.2793999130 1 1 1
C                 18.5797027609      18.5559255716       1.2792882126 1 1 1
C                 22.1642513587      16.2989434078       1.2792162542 1 1 1
C                 26.3912014065      15.9237001241       1.2792611697 1 1 1
C                 30.3986022921      17.3361243591       1.2794858486 1 1 1
C                 33.5188516712      20.2227777292       1.2802728363 1 1 1
C                 35.0252215097      24.1792736988       1.2804140253 1 1 1
C                 34.4735038523      28.3958947439       1.2804610278 1 1 1
C                 33.1861064370      32.4687942132       1.2806611987 1 1 1
C                 32.0285166190      36.6031902423       1.2812951364 1 1 1
C                 30.9678224762      40.8092901377       1.2825882117 1 1 1
C                 30.5556130408      27.0633484279       1.2662491646 1 1 1
C                 27.0543065174      29.3864715204       1.2767397735 1 1 1
C                 22.8952647289      30.1785593012       1.2808325960 1 1 1
C                 18.9502987293      28.7015326993       1.2795248598 1 1 1
C                 16.7063757015      25.1477641491       1.2797448014 1 1 1
C                 17.0467598590      20.9448814884       1.2792273523 1 1 1
C                 19.6418411457      17.6058645379       1.2792119002 1 1 1
C                 23.5490038939      15.9630040443       1.2791518670 1 1 1
C                 27.7872660057      16.2096338466       1.2793622786 1 1 1
C                 31.5670778796      18.1525303648       1.2797470686 1 1 1
C                 34.2494024399      21.4478312566       1.2808547958 1 1 1
C                 35.0301043585      25.6053702878       1.2802623615 1 1 1
C                 34.0552722344      29.7597895110       1.2803983136 1 1 1
C                 32.7811754748      33.8345735152       1.2810632273 1 1 1
C                 31.6591855954      37.9904830405       1.2812232693 1 1 1
C                 30.6940101870      42.1220195384       1.2889375561 1 1 1
C                 31.9244033595      24.0196999102       2.5148555408 1 1 1
C                 30.0799687106      27.5845919520       2.5149807229 1 1 1
C                 26.3946438399      29.6400974654       2.5148146307 1 1 1
C                 22.1862827398      30.1002057410       2.5143051319 1 1 1
C                 18.4184231474      28.2270398555       2.5140583890 1 1 1
C                 16.5789639182      24.4451354388       2.5137582631 1 1 1
C                 17.3441132821      20.2962387788       2.5135199990 1 1 1
C                 20.2308008429      17.2031566531       2.5132325572 1 1 1
C                 24.2565365342      15.8743460947       2.5132645684 1 1 1
C                 28.4672784224      16.4249530876       2.5132878307 1 1 1
C                 32.1085935618      18.6177185124       2.5134390622 1 1 1
C                 34.5460343951      22.0984254829       2.5135824539 1 1 1
C                 34.9532968021      26.3140838704       2.5137617502 1 1 1
C                 33.8365556591      30.4372050957       2.5143927030 1 1 1
C                 32.5949149822      34.5230313603       2.5110393176 1 1 1
C                 31.4788230724      38.6765974236       2.5248460234 1 1 1
C                 31.8715885093      25.4837417531       2.5150082788 1 1 1
C                 28.9338599659      28.4013182133       2.5149219026 1 1 1
C                 25.0216405352      30.0128809849       2.5146775773 1 1 1
C                 20.8083954121      29.7443998397       2.5141359149 1 1 1
C                 17.5300957780      27.1139979129       2.5139909213 1 1 1
C                 16.5502826647      23.0204231931       2.5136335209 1 1 1
C                 18.1157540989      19.0982353869       2.5134152802 1 1 1
C                 21.4958628786      16.5479983189       2.5132572530 1 1 1
C                 25.6812038588      15.8546139368       2.5132085592 1 1 1
C                 29.7755224060      16.9888093354       2.5133120632 1 1 1
C                 33.0875827322      19.6537087946       2.5135691986 1 1 1
C                 34.9373032461      23.4703594685       2.5135192891 1 1 1
C                 34.6658013296      27.7096683282       2.5137198746 1 1 1
C                 33.3999211027      31.7934394741       2.5144420694 1 1 1
C                 32.2231585303      35.8997082645       2.5076752784 1 1 1
C                 31.1289934314      40.0834926771       2.5575785854 1 1 1
C                 31.4359168109      25.9795255424       3.7589364650 1 1 1
C                 28.3237818261      28.7425941395       3.7589954265 1 1 1
C                 24.3184530927      30.1363178948       3.7468720251 1 1 1
C                 20.1533722308      29.4647978519       3.7487094651 1 1 1
C                 17.1837059602      26.4903472811       3.7480697899 1 1 1
C                 16.6465987892      22.3131002909       3.7478898098 1 1 1
C                 18.5802082637      18.5561006751       3.7474880760 1 1 1
C                 22.1640022598      16.2984602741       3.7475211545 1 1 1
C                 26.3912470259      15.9239569276       3.7474017109 1 1 1
C                 30.3986295265      17.3363973244       3.7476477871 1 1 1
C                 33.5193696580      20.2227257443       3.7476030936 1 1 1
C                 35.0247543821      24.1800549999       3.7476904548 1 1 1
C                 34.4730689082      28.3970171728       3.7482485903 1 1 1
C                 33.1852720753      32.4734759900       3.7478509960 1 1 1
C                 32.0280122337      36.5691992041       3.7385757811 1 1 1
C                 30.9717995432      40.6965497459       3.7982506394 1 1 1
C                 30.5555623679      27.0632753540       3.7637160119 1 1 1
C                 27.0538190393      29.3855187927       3.7528084352 1 1 1
C                 22.8951193905      30.1788071444       3.7478243299 1 1 1
C                 18.9503946751      28.7015289888       3.7485891124 1 1 1
C                 16.7065133840      25.1476535497       3.7479361346 1 1 1
C                 17.0467597559      20.9450396411       3.7478688768 1 1 1
C                 19.6415562269      17.6053227558       3.7474208757 1 1 1
C                 23.5487479203      15.9630671193       3.7475239864 1 1 1
C                 27.7869040203      16.2100934749       3.7474989785 1 1 1
C                 31.5671031250      18.1518613288       3.7476494081 1 1 1
C                 34.2489048846      21.4473536309       3.7470825608 1 1 1
C                 35.0294398316      25.6047300939       3.7482051439 1 1 1
C                 34.0553276090      29.7594136804       3.7488835121 1 1 1
C                 32.7781647171      33.8389280169       3.7466621779 1 1 1
C                 31.6588230724      37.9395610041       3.7324979048 1 1 1
C                 30.6645463531      42.0110753951       4.3498043399 1 1 1
C                 31.5974217832      23.8104700578       3.8985124757 1 1 1
C                 29.9733815088      27.3768775683       5.0074768142 1 1 1
C                 26.3884990001      29.6541489602       4.9807870958 1 1 1
C                 22.1874823517      30.1064849718       4.9818950120 1 1 1
C                 18.4185047577      28.2271843699       4.9821950995 1 1 1
C                 16.5795063168      24.4457499375       4.9818826961 1 1 1
C                 17.3449834311      20.2963622893       4.9816090111 1 1 1
C                 20.2285449589      17.1997390887       4.9814599842 1 1 1
C                 24.2566974873      15.8765074491       4.9814781407 1 1 1
C                 28.4672319572      16.4246321869       4.9815336843 1 1 1
C                 32.1069984280      18.6179679510       4.9814510858 1 1 1
C                 34.5200107189      22.1056598517       4.9815452619 1 1 1
C                 34.9357758985      26.3111735606       4.9814190020 1 1 1
C                 33.8315910312      30.4365112192       4.9821823203 1 1 1
C                 32.5729257333      34.5165329424       4.9826672693 1 1 1
C                 31.4866926492      38.5794490850       4.9834756973 1 1 1
C                 31.5115655228      24.9491444579       4.7992865400 1 1 1
C                 28.8862373892      28.3031125988       4.9982332247 1 1 1
C                 25.0197159226      30.0406428556       4.9807968607 1 1 1
C                 20.8085830745      29.7462292840       4.9819707628 1 1 1
C                 17.5286908949      27.1142343238       4.9819846553 1 1 1
C                 16.5523912268      23.0207688143       4.9817566225 1 1 1
C                 18.1156616416      19.0974053322       4.9815350786 1 1 1
C                 21.4947097507      16.5455924691       4.9815103583 1 1 1
C                 25.6815459231      15.8576247049       4.9813907681 1 1 1
C                 29.7761508335      16.9881636558       4.9816176711 1 1 1
C                 33.0839153623      19.6563303453       4.9812743355 1 1 1
C                 34.9098714724      23.4769608367       4.9814417616 1 1 1
C                 34.6533194980      27.7081766574       4.9818185924 1 1 1
C                 33.3921029447      31.7936333040       4.9823063872 1 1 1
C                 32.1954011591      35.8874016027       4.9827609754 1 1 1
C                 31.1558185596      39.9140598318       4.9837106935 1 1 1
C                 31.1793881893      25.4188534151       6.2172473908 1 1 1
C                 28.2767456776      28.6943535437       6.2171205384 1 1 1
C                 24.3184072168      30.1535524863       6.2168757104 1 1 1
C                 20.1537728059      29.4645904779       6.2164142881 1 1 1
C                 17.1820454917      26.4907131582       6.2161878100 1 1 1
C                 16.6496083213      22.3135904969       6.2158796796 1 1 1
C                 18.5793612325      18.5545982824       6.2156099449 1 1 1
C                 22.1637970146      16.2978312634       6.2155440347 1 1 1
C                 26.3912579271      15.9264406695       6.2155035397 1 1 1
C                 30.3996671832      17.3350068501       6.2155846981 1 1 1
C                 33.5118130276      20.2257552623       6.2157727327 1 1 1
C                 35.0001318868      24.1824988784       6.2158529934 1 1 1
C                 34.4643239005      28.3947401520       6.2157462351 1 1 1
C                 33.1748860417      32.4697771613       6.2171712686 1 1 1
C                 32.0095214318      36.5644386359       6.2278840397 1 1 1
C                 30.9732616325      40.6986527648       6.1693193508 1 1 1
C                 30.4295605896      26.7035602705       6.2172582579 1 1 1
C                 27.0405918604      29.3858406744       6.2170306130 1 1 1
C                 22.8952530191      30.1868276478       6.2166601447 1 1 1
C                 18.9510458123      28.7015937348       6.2162759224 1 1 1
C                 16.7063028189      25.1480648156       6.2161054547 1 1 1
C                 17.0485959093      20.9455612368       6.2157531271 1 1 1
C                 19.6400455853      17.6031470078       6.2155886714 1 1 1
C                 23.5489027756      15.9641968049       6.2154970275 1 1 1
C                 27.7872326744      16.2100242501       6.2156052398 1 1 1
C                 31.5670162561      18.1521400801       6.2156814870 1 1 1
C                 34.2327978540      21.4537548710       6.2156837113 1 1 1
C                 35.0094436538      25.6047769295       6.2158116339 1 1 1
C                 34.0501551845      29.7580868598       6.2156290611 1 1 1
C                 32.7633066344      33.8342410672       6.2184896945 1 1 1
C                 31.6525335548      37.9389231132       6.2348995502 1 1 1
C                 30.6666524955      42.0122552173       5.6142864533 1 1 1
Al                29.5757503612      32.5590689470       2.4210701362 0 0 0
Cl                30.4466287099      31.6046000278       0.6758790881 1 1 1
Cl                30.0681983387      34.6611954593       2.4449417877 1 1 1
Cl                30.4258626298      31.5660694386       4.1536808467 1 1 1
Cl                27.4212088323      32.4159087435       2.4009839039 1 1 1
