&CONTROL
    restart_mode = 'restart'
    calculation = 'relax'
    prefix = 'ns'
    pseudo_dir = '/home/tomas.rojas_s/pseudo/'
    outdir = '/scratch/global/tomas.rojas_s/ns/c3_flip/out'
    nstep = 200
    etot_conv_thr = 1.0D-4
    forc_conv_thr = 1.0D-3
/
&SYSTEM
    ibrav = 0
    nat = 197
    ntyp = 3
    ecutwfc = 45.0
    ecutrho = 360.0
    occupations = 'smearing'
    smearing = 'mp'
    degauss = 0.02
    vdw_corr = 'dft-d3'
/
&ELECTRONS
    conv_thr = 1.0D-8
    mixing_mode = 'local-TF'
    mixing_beta = 0.7
/
&IONS
/
&CELL
/

ATOMIC_SPECIES
C 12.011 C.pbe-n-kjpaw_psl.1.0.0.UPF
Al 26.9815385 Al.pbe-n-kjpaw_psl.1.0.0.UPF
Cl 35.45 Cl.pbe-n-kjpaw_psl.1.0.0.UPF

K_POINTS automatic
1 1 3 0 0 0

CELL_PARAMETERS angstrom
50.00000000000000 0.00000000000000 0.00000000000000
0.00000000000000 50.00000000000000 0.00000000000000
0.00000000000000 0.00000000000000 7.40451720000000

ATOMIC_POSITIONS angstrom
C                 29.2111962918      21.1749538012       6.7848578241
C                 28.2228308618      25.2520134293      -0.0076786548
C                 26.5554216517      29.1489040038       7.3799274948
C                 23.0752549802      31.4609261199       7.3779990351
C                 19.0999327655      30.2887333106       7.3786304277
C                 17.2701349465      26.5165915290       7.3786708533
C                 18.0097821670      22.3510074764       7.3777660253
C                 20.6478126071      19.0304224456       7.3782615189
C                 24.5014661340      17.2590000447       7.3791016895
C                 28.7388177940      17.3944923643       7.3791414343
C                 32.4504206552      19.4278455218       7.3792623429
C                 35.0569722374      22.7915484715       7.3790770791
C                 36.2378921571      26.8635208278       7.3787295548
C                 34.7939081317      30.7767699160      -0.0255218433
C                 31.1794463198      32.9932948078      -0.0233905444
C                 27.1225410027      34.1121720221      -0.0222071031
C                 28.9206805783      22.4993433466       7.3287420574
C                 27.7968639292      26.6069002602      -0.0147198463
C                 25.6103656015      30.2180609604       7.3789403341
C                 21.6513076794      31.4850328369       7.3783237886
C                 18.1835655037      29.1981418927       7.3789367545
C                 17.2609456030      25.0918288834       7.3783023578
C                 18.7107669074      21.1106174289       7.3778767998
C                 21.8349108794      18.2424734213       7.3786293934
C                 25.9156378683      17.0860523107       7.3792757965
C                 30.0817459408      17.8682719191       7.3790906622
C                 33.4466118763      20.4464856590       7.3792523464
C                 35.6486240850      24.0881390506       7.3788876915
C                 36.1117106367      28.2832601164       7.3787877952
C                 33.7159196005      31.7099950244      -0.0247887941
C                 29.8269390019      33.4325825680      -0.0227900313
C                 25.7806834980      34.4134505255      -0.0219983763
C                 28.7628572221      23.1084761492       1.1670612895
C                 27.5490470360      27.2602327516       1.2167046156
C                 25.0484865201      30.6618737116       1.2076142275
C                 20.9525013569      31.3366291866       1.2086178925
C                 17.8382501424      28.5724308127       1.2091178749
C                 17.3581004187      24.3841742402       1.2081052314
C                 19.1325583766      20.5347480171       1.2076706270
C                 22.4713609989      17.9198753120       1.2084348023
C                 26.6289221617      17.0818287149       1.2088691937
C                 30.7166277361      18.1870512996       1.2092715481
C                 33.8968075968      20.9990714281       1.2086177757
C                 35.8788604770      24.7622539566       1.2082742832
C                 35.9081921869      28.9650329842       1.2086237666
C                 33.1173945692      32.0954245880       1.2106596846
C                 29.1473479956      33.6176124920       1.2223048526
C                 24.9910149155      34.5758964850       1.1620668476
C                 28.4100385107      24.5150635300       1.2004879848
C                 26.9345595661      28.5480987899       1.2121279337
C                 23.7685766754      31.2904405610       1.2076553273
C                 19.6643841932      30.7275864828       1.2087361248
C                 17.3838945276      27.2221574547       1.2087648025
C                 17.7358350392      23.0102979928       1.2077037785
C                 20.1030957579      19.4916661790       1.2078518931
C                 23.8080298282      17.4264272084       1.2087553679
C                 28.0448063161      17.2355615241       1.2089774918
C                 31.9019320426      18.9741777972       1.2088914507
C                 34.7040163496      22.1725387062       1.2085207983
C                 36.1806495677      26.1538748218       1.2080895158
C                 35.2425302233      30.2246433510       1.2087581449
C                 31.8406330236      32.7321996392       1.2125261758
C                 27.7681093493      33.9595454667       1.2295891218
C                 23.6649834987      34.8437140288       0.6155698327
C                 29.1885581092      21.0619768778       2.4392082999
C                 28.1977266697      25.1920728529       2.4444175244
C                 26.5444110386      29.1482641580       2.4428826920
C                 23.0752307681      31.4625906336       2.4416916057
C                 19.1003843437      30.2891927717       2.4427067685
C                 17.2701393119      26.5169269881       2.4425232994
C                 18.0097378599      22.3511495715       2.4416390152
C                 20.6472713941      19.0302633359       2.4419869997
C                 24.5014599896      17.2582638654       2.4428255863
C                 28.7405063555      17.3900502901       2.4428383802
C                 32.4456896797      19.4337960709       2.4431222930
C                 35.0561416000      22.7925474555       2.4432158186
C                 36.2371409885      26.8640378546       2.4430303145
C                 34.7948463286      30.7777537955       2.4431538346
C                 31.1789584525      32.9883656515       2.4483190946
C                 27.0237382326      34.1215287371       2.4368728622
C                 28.9105876508      22.3735789467       2.4428152986
C                 27.7805076314      26.5653435897       2.4439922844
C                 25.6078351187      30.2223529865       2.4419032283
C                 21.6500477017      31.4890571079       2.4420739593
C                 18.1824612328      29.1983301693       2.4428951405
C                 17.2607540937      25.0914401272       2.4420793980
C                 18.7108434272      21.1102473917       2.4416735973
C                 21.8349473792      18.2426015849       2.4423042969
C                 25.9157807002      17.0851000043       2.4429242949
C                 30.0813955491      17.8664530489       2.4427854923
C                 33.4441010238      20.4486836040       2.4432461184
C                 35.6471502848      24.0882009373       2.4431959134
C                 36.1099487759      28.2821361551       2.4433494854
C                 33.7186734763      31.7122439848       2.4435606344
C                 29.8204998696      33.4274642690       2.4525196299
C                 25.6056346085      34.4311519853       2.4054296173
C                 28.7326026304      23.1001511135       3.7195315081
C                 27.5173653331      27.2462105214       3.6700275960
C                 25.0447092988      30.6593056735       3.6761659056
C                 20.9522964367      31.3380185361       3.6759237466
C                 17.8381048042      28.5723478142       3.6765866606
C                 17.3578182395      24.3841959515       3.6758366496
C                 19.1327619222      20.5348632417       3.6756587355
C                 22.4716238701      17.9203630843       3.6763252643
C                 26.6289804526      17.0812292371       3.6768464469
C                 30.7162871575      18.1872207360       3.6760842603
C                 33.8955738703      20.9997354940       3.6771606973
C                 35.8781654794      24.7618236404       3.6770064347
C                 35.9150443270      28.9672580435       3.6769763502
C                 33.1188569734      32.0927600665       3.6780996192
C                 29.1119151304      33.6167692621       3.6797561154
C                 24.8686522746      34.5593640050       3.6802107490
C                 28.3647882136      24.5019964921       3.6864605650
C                 26.9145005155      28.5370748650       3.6732686452
C                 23.7662165368      31.2870205547       3.6763578128
C                 19.6647724982      30.7280910827       3.6763999534
C                 17.3839581759      27.2220921583       3.6765197362
C                 17.7353524524      23.0102493313       3.6755539767
C                 20.1035755444      19.4921473118       3.6758997034
C                 23.8080832345      17.4263214660       3.6766772583
C                 28.0449746699      17.2349104558       3.6765136501
C                 31.9017538646      18.9747196237       3.6767496675
C                 34.7030443344      22.1737164588       3.6770545261
C                 36.1802421970      26.1545955121       3.6770159616
C                 35.2465201573      30.2265117520       3.6770824989
C                 31.8435716867      32.7257034830       3.6791010301
C                 27.7169540920      33.9577729075       3.6800626465
C                 23.5347620347      34.7304176760       3.6777746254
C                 29.2062205373      21.1742730586       5.5091589712
C                 28.1767380231      25.2382092344       4.8944013308
C                 26.5424302163      29.1406800486       4.9092825747
C                 23.0745693231      31.4614335110       4.9112812476
C                 19.0999541048      30.2889908260       4.9111207536
C                 17.2698053775      26.5166513980       4.9110502203
C                 18.0097033363      22.3510019779       4.9099187587
C                 20.6480837709      19.0309063589       4.9102756166
C                 24.5014739194      17.2585073403       4.9109825402
C                 28.7387878266      17.3942653673       4.9109112495
C                 32.4497109578      19.4290490701       4.9109119475
C                 35.0559728535      22.7925964266       4.9107694244
C                 36.2359531816      26.8649594220       4.9108351454
C                 34.7957433702      30.7764895680       4.9119552155
C                 31.1787183063      32.9888161352       4.9100056355
C                 27.0230071526      34.1191330227       4.9235414818
C                 28.8995071781      22.4936819287       4.9620127022
C                 27.7582534013      26.5914500899       4.9010576784
C                 25.6052888916      30.2141957752       4.9101987297
C                 21.6506705097      31.4870789453       4.9108901354
C                 18.1833564856      29.1983482493       4.9112240738
C                 17.2605969126      25.0918503157       4.9104754160
C                 18.7110389004      21.1107724422       4.9099701799
C                 21.8350486787      18.2428027368       4.9105248362
C                 25.9156614606      17.0855914079       4.9110871697
C                 30.0812747175      17.8686589202       4.9108722357
C                 33.4451964195      20.4474017571       4.9110316343
C                 35.6472229245      24.0880245371       4.9106196263
C                 36.1133607032      28.2842040986       4.9108050453
C                 33.7164366650      31.7080719252       4.9123935508
C                 29.8203364691      33.4271719406       4.9067179611
C                 25.6049083567      34.4300717629       4.9555301059
C                 28.7328213187      23.2811444373       6.1451037821
C                 27.5370696690      27.2594182684       6.1452036355
C                 25.0465527469      30.6572745957       6.1447709170
C                 20.9524800367      31.3363514349       6.1445842854
C                 17.8377601990      28.5728516720       6.1450300648
C                 17.3576018008      24.3844001635       6.1441997808
C                 19.1326408978      20.5350274213       6.1439452747
C                 22.4711473508      17.9197775804       6.1446326808
C                 26.6285437769      17.0817894106       6.1452298211
C                 30.7204212446      18.1817808128       6.1450749811
C                 33.8973204802      20.9986088530       6.1454007961
C                 35.8793539614      24.7622346434       6.1450303060
C                 35.9190922075      28.9698496463       6.1455157254
C                 33.1159432005      32.0936513355       6.1452207674
C                 29.1471167724      33.6166485094       6.1370191652
C                 24.9903361438      34.5761868311       6.1989919102
C                 28.3859167770      24.6105345201       6.1455443145
C                 26.9271272282      28.5426454977       6.1446425844
C                 23.7680878799      31.2890730450       6.1445664645
C                 19.6631892411      30.7280220045       6.1447824619
C                 17.3824954219      27.2219632182       6.1448825751
C                 17.7356035352      23.0099994056       6.1438435117
C                 20.1036560750      19.4918898469       6.1441615337
C                 23.8081031404      17.4265312024       6.1449264354
C                 28.0443901555      17.2364881897       6.1451143171
C                 31.9075439911      18.9673934033       6.1451973079
C                 34.7037452174      22.1726365277       6.1452308975
C                 36.1807559791      26.1538647076       6.1451688703
C                 35.2507549476      30.2287456061       6.1459495960
C                 31.8402650833      32.7322223401       6.1448258694
C                 27.7677252894      33.9575788874       6.1305167404
C                 23.6650539499      34.8463141032       6.7469315179
Al                31.8087318646      27.6061839526       4.5110665319
Cl                32.8065649709      27.1159556290       6.3559593445
Cl                32.9347313466      27.3910243616       2.6878256568
Cl                31.3725222551      29.7201522788       4.6518148608
Cl                30.1740353112      26.1850349516       4.3446530262
