&CONTROL
    restart_mode = 'restart'
    calculation = 'relax'
    prefix = 'ns'
    pseudo_dir = '/home/tomas.rojas_s/pseudo/'
    outdir = '/scratch/global/tomas.rojas_s/ns/extraction_path/step_5/out'
    nstep = 200
    etot_conv_thr = 1.0D-4
    forc_conv_thr = 1.0D-3
/
&SYSTEM
    ibrav = 0
    nat = 197
    ntyp = 3
    ecutwfc = 45.0
    ecutrho = 360.0
    occupations = 'smearing'
    smearing = 'mp'
    degauss = 0.02
    vdw_corr = 'dft-d3'
/
&ELECTRONS
    conv_thr = 1.0D-8
    mixing_mode = 'local-TF'
    mixing_beta = 0.7
/
&IONS
/
&CELL
/

ATOMIC_SPECIES
C 12.011 C.pbe-n-kjpaw_psl.1.0.0.UPF
Al 26.9815385 Al.pbe-n-kjpaw_psl.1.0.0.UPF
Cl 35.45 Cl.pbe-n-kjpaw_psl.1.0.0.UPF

K_POINTS automatic
1 1 3 0 0 0

CELL_PARAMETERS angstrom
50.00000000000000 0.00000000000000 0.00000000000000
0.00000000000000 50.00000000000000 0.00000000000000
0.00000000000000 0.00000000000000 7.40451720000000

ATOMIC_POSITIONS angstrom
C                 32.2234079306      24.8340404015       1.1315341725 1 1 1
C                 29.8087903206      27.9256024678       7.4256127800 1 1 1
C                 25.9416468700      29.7304496421       0.0461980316 1 1 1
C                 21.7150770495      29.9893729200       0.0453396314 1 1 1
C                 18.0133820133      27.9888302865       0.0445543812 1 1 1
C                 16.3285604630      24.1350631514       0.0444526140 1 1 1
C                 17.2082099935      20.0102276910       0.0442549954 1 1 1
C                 20.2015088513      17.0267056858       0.0442365909 1 1 1
C                 24.2740097768      15.8532426895       0.0441350788 1 1 1
C                 28.4615368855      16.5529378326       0.0443350607 1 1 1
C                 32.0802428629      18.7861729894       0.0445725029 1 1 1
C                 34.6552930048      22.1639239248       0.0449646542 1 1 1
C                 35.6354019950      26.2873578988       0.0458880409 1 1 1
C                 35.2617162161      30.5344107433       0.0454768960 1 1 1
C                 34.3186681011      34.6920347944       0.0493986381 1 1 1
C                 32.8741449001      38.7436479089       7.4412546338 1 1 1
C                 31.8740164014      25.9183856611       0.2250658990 1 1 1
C                 28.5747881176      28.6505267559       7.4352182859 1 1 1
C                 24.5504493422      30.0346453366       0.0459447600 1 1 1
C                 20.3475901158      29.5886090835       0.0450895288 1 1 1
C                 17.1720597887      26.8390685142       0.0446487262 1 1 1
C                 16.3447463054      22.7104888632       0.0444468662 1 1 1
C                 18.0148277273      18.8361297096       0.0443790390 1 1 1
C                 21.4918963328      16.4240805161       0.0442117579 1 1 1
C                 25.6974718980      15.8891106033       0.0441472313 1 1 1
C                 29.7559199335      17.1472166380       0.0443634210 1 1 1
C                 33.0787828478      19.8010595073       0.0447847222 1 1 1
C                 35.1839669904      23.4855335017       0.0453997369 1 1 1
C                 35.6062368590      27.7104871798       0.0459950379 1 1 1
C                 34.9992337152      31.9333791212       0.0457916726 1 1 1
C                 33.8886551965      36.0518243925       0.0532552904 1 1 1
C                 32.3198743917      40.0843454048       7.4089872864 1 1 1
C                 31.5480648711      26.8917126115       1.2692910422 1 1 1
C                 27.9517952681      29.0005333107       1.2677663281 1 1 1
C                 23.8456253974      30.1092330520       1.2796069267 1 1 1
C                 19.7021399400      29.2873775582       1.2786125827 1 1 1
C                 16.8529453416      26.2012776308       1.2782859389 1 1 1
C                 16.4585418523      22.0065039683       1.2782700448 1 1 1
C                 18.4995480575      18.3133134557       1.2782587231 1 1 1
C                 22.1694028682      16.2022373584       1.2782245564 1 1 1
C                 26.4037615561      15.9818433537       1.2781221739 1 1 1
C                 30.3730662345      17.5033120482       1.2783772382 1 1 1
C                 33.5325399720      20.3505698025       1.2787694773 1 1 1
C                 35.3917686229      24.1665921338       1.2793927144 1 1 1
C                 35.5530820747      28.4196400417       1.2795431906 1 1 1
C                 34.8562800575      32.6275266048       1.2793720980 1 1 1
C                 33.6535783375      36.7435219687       1.2803180372 1 1 1
C                 32.0409888424      40.7716941271       1.2807510687 1 1 1
C                 30.4324695637      27.7280009981       1.2650881758 1 1 1
C                 26.6248801269      29.5172364442       1.2743212867 1 1 1
C                 22.4204336322      30.0891880804       1.2790511033 1 1 1
C                 18.5259244466      28.4834960736       1.2784547279 1 1 1
C                 16.4311084516      24.8406201723       1.2783383217 1 1 1
C                 16.8921088390      20.6495011359       1.2782003053 1 1 1
C                 19.5979924701      17.4063730499       1.2782567040 1 1 1
C                 23.5642216544      15.9150568673       1.2781349195 1 1 1
C                 27.7886933847      16.3160106233       1.2780969970 1 1 1
C                 31.5375184319      18.3241705278       1.2784385434 1 1 1
C                 34.3269055808      21.5333810662       1.2789847594 1 1 1
C                 35.6106827948      25.5755521614       1.2793973346 1 1 1
C                 35.3765697734      29.8340636402       1.2796321749 1 1 1
C                 34.5222766064      34.0108485014       1.2801784800 1 1 1
C                 33.1394771422      38.0845373843       1.2801630676 1 1 1
C                 31.5463309116      42.0187683095       1.2855936388 1 1 1
C                 32.5009959630      25.1158380170       2.5131234224 1 1 1
C                 29.8621666836      28.1348384870       2.5136484559 1 1 1
C                 25.9498333509      29.7320838610       2.5132165603 1 1 1
C                 21.7146214344      29.9875286578       2.5130213268 1 1 1
C                 18.0136202915      27.9876098495       2.5126133978 1 1 1
C                 16.3312022229      24.1344823081       2.5126029897 1 1 1
C                 17.2068727878      20.0095769967       2.5123532674 1 1 1
C                 20.2023628986      17.0281817397       2.5123489742 1 1 1
C                 24.2740744138      15.8515477775       2.5121802297 1 1 1
C                 28.4616450763      16.5505046174       2.5121706032 1 1 1
C                 32.0825234748      18.7837871437       2.5121928635 1 1 1
C                 34.6698930186      22.1594717404       2.5121721586 1 1 1
C                 35.6487787036      26.2869156385       2.5127915330 1 1 1
C                 35.2637597750      30.5360091490       2.5131985490 1 1 1
C                 34.3399995668      34.6996097533       2.5105789420 1 1 1
C                 32.8802417538      38.7452225151       2.5237034092 1 1 1
C                 32.0945049388      26.5215885893       2.5134059372 1 1 1
C                 28.5972938370      28.7429729705       2.5135703650 1 1 1
C                 24.5574460103      30.0304840808       2.5131280628 1 1 1
C                 20.3483210308      29.5875756466       2.5128611948 1 1 1
C                 17.1724419936      26.8386686718       2.5125590930 1 1 1
C                 16.3453478138      22.7103845332       2.5125594687 1 1 1
C                 18.0160191107      18.8375510637       2.5123611446 1 1 1
C                 21.4927449015      16.4262962924       2.5123499402 1 1 1
C                 25.6976458146      15.8851954472       2.5121437654 1 1 1
C                 29.7554173841      17.1463185106       2.5121501169 1 1 1
C                 33.0823589037      19.7978223319       2.5121865963 1 1 1
C                 35.2115487315      23.4766813322       2.5122766603 1 1 1
C                 35.6142528914      27.7108288304       2.5127051657 1 1 1
C                 35.0022765205      31.9351651495       2.5131777073 1 1 1
C                 33.9084542290      36.0592383744       2.5068684098 1 1 1
C                 32.3273508680      40.0859452093       2.5563345935 1 1 1
C                 31.5517413664      26.8958677961       3.7578568309 1 1 1
C                 27.9541971268      29.0060068819       3.7592329986 1 1 1
C                 23.8457604678      30.1095268071       3.7465893419 1 1 1
C                 19.7020166558      29.2874370733       3.7470371427 1 1 1
C                 16.8530037532      26.2013264453       3.7469077163 1 1 1
C                 16.4590300923      22.0064970883       3.7467899582 1 1 1
C                 18.4993197357      18.3131802688       3.7464791742 1 1 1
C                 22.1696306896      16.2024945842       3.7464907432 1 1 1
C                 26.4038402178      15.9811628166       3.7464884382 1 1 1
C                 30.3724225631      17.5046676501       3.7463693274 1 1 1
C                 33.5337922530      20.3501980250       3.7463714977 1 1 1
C                 35.3895532191      24.1676209729       3.7464513939 1 1 1
C                 35.5514992880      28.4211999921       3.7471810259 1 1 1
C                 34.8529421916      32.6302115592       3.7468225511 1 1 1
C                 33.6746422004      36.7163478802       3.7373221842 1 1 1
C                 32.0832259070      40.6692506203       3.7973497554 1 1 1
C                 30.4383660800      27.7367960953       3.7626338677 1 1 1
C                 26.6262127001      29.5207967066       3.7522129844 1 1 1
C                 22.4205483377      30.0893839089       3.7469542301 1 1 1
C                 18.5258891921      28.4833551735       3.7468751738 1 1 1
C                 16.4311207252      24.8407156885       3.7468593329 1 1 1
C                 16.8926085388      20.6495651591       3.7467516530 1 1 1
C                 19.5977686318      17.4064278548       3.7466232631 1 1 1
C                 23.5642383081      15.9151090676       3.7465148693 1 1 1
C                 27.7880832957      16.3166061140       3.7465307727 1 1 1
C                 31.5380682292      18.3228535084       3.7463651416 1 1 1
C                 34.3267312453      21.5328955598       3.7461729437 1 1 1
C                 35.6075857199      25.5750500436       3.7469515049 1 1 1
C                 35.3745116483      29.8339714809       3.7475225376 1 1 1
C                 34.5218803500      34.0152699057       3.7455486881 1 1 1
C                 33.1707281437      38.0439101158       3.7311457483 1 1 1
C                 31.5561841221      41.9125010405       4.3481080011 1 1 1
C                 32.2226289486      24.8358772063       3.8938684775 1 1 1
C                 29.8141854703      27.9342932430       5.0066221100 1 1 1
C                 25.9424009311      29.7328088730       4.9802782571 1 1 1
C                 21.7151175704      29.9894608181       4.9805725320 1 1 1
C                 18.0134187405      27.9886794700       4.9807436179 1 1 1
C                 16.3281082508      24.1352194129       4.9807434701 1 1 1
C                 17.2081162292      20.0099750472       4.9806087977 1 1 1
C                 20.2014121371      17.0270015798       4.9805220982 1 1 1
C                 24.2739971489      15.8526821492       4.9804860560 1 1 1
C                 28.4606990514      16.5537529099       4.9803775180 1 1 1
C                 32.0813062809      18.7844602422       4.9802520100 1 1 1
C                 34.6543503031      22.1636720327       4.9803665804 1 1 1
C                 35.6336856841      26.2868842610       4.9802572807 1 1 1
C                 35.2596250132      30.5347111098       4.9813055525 1 1 1
C                 34.3205808388      34.6932342257       4.9817111571 1 1 1
C                 32.9245012508      38.6588111466       4.9825245923 1 1 1
C                 31.8750642569      25.9208245467       4.8011242322 1 1 1
C                 28.5782980625      28.6570316474       4.9965172758 1 1 1
C                 24.5506566751      30.0352773647       4.9802922007 1 1 1
C                 20.3476075741      29.5886565501       4.9805495075 1 1 1
C                 17.1719525411      26.8390338975       4.9806137641 1 1 1
C                 16.3444529519      22.7105460716       4.9805459859 1 1 1
C                 18.0145858924      18.8357144546       4.9806153977 1 1 1
C                 21.4920205537      16.4245149902       4.9805120139 1 1 1
C                 25.6977696210      15.8877513123       4.9805711680 1 1 1
C                 29.7550565736      17.1489639076       4.9803352641 1 1 1
C                 33.0800420214      19.8003471863       4.9800918601 1 1 1
C                 35.1826066182      23.4864360264       4.9803641109 1 1 1
C                 35.6062107609      27.7113835216       4.9804657737 1 1 1
C                 34.9963359714      31.9347797335       4.9810836758 1 1 1
C                 33.8972109415      36.0503417978       4.9819399611 1 1 1
C                 32.3964753205      39.9283889871       4.9826352723 1 1 1
C                 31.4367325372      26.2989550419       6.2153838700 1 1 1
C                 27.9211588478      28.9595109305       6.2157516772 1 1 1
C                 23.8431980361      30.1112149153       6.2153632153 1 1 1
C                 19.7016798291      29.2877096673       6.2150053493 1 1 1
C                 16.8532033817      26.2010335978       6.2149002783 1 1 1
C                 16.4601388632      22.0068592819       6.2146893208 1 1 1
C                 18.4977684857      18.3112190152       6.2146725129 1 1 1
C                 22.1693655970      16.2018566077       6.2144646535 1 1 1
C                 26.4036505755      15.9856420438       6.2144968741 1 1 1
C                 30.3732144002      17.5044065019       6.2143585254 1 1 1
C                 33.5275776583      20.3537102438       6.2144191370 1 1 1
C                 35.3632465782      24.1739945207       6.2147141329 1 1 1
C                 35.5451872084      28.4195391586       6.2148382833 1 1 1
C                 34.8457433440      32.6263443931       6.2161532130 1 1 1
C                 33.6597497046      36.7110128586       6.2268578326 1 1 1
C                 32.0757707217      40.6674872329       6.1675531180 1 1 1
C                 30.4046468534      27.3776009814       6.2158474899 1 1 1
C                 26.6150987895      29.5136037609       6.2155173981 1 1 1
C                 22.4196965727      30.0913099852       6.2152588936 1 1 1
C                 18.5261021313      28.4839069666       6.2149070190 1 1 1
C                 16.4297364923      24.8411854141       6.2148519647 1 1 1
C                 16.8945721816      20.6505730014       6.2146597873 1 1 1
C                 19.5970519543      17.4054224776       6.2147083777 1 1 1
C                 23.5642144861      15.9168637316       6.2144758055 1 1 1
C                 27.7880734651      16.3190107893       6.2145084716 1 1 1
C                 31.5368485649      18.3249821441       6.2143398578 1 1 1
C                 34.3180296418      21.5371225597       6.2143922867 1 1 1
C                 35.5882380155      25.5781998608       6.2147000009 1 1 1
C                 35.3707544020      29.8326701901       6.2149401150 1 1 1
C                 34.5039136523      34.0091929994       6.2176341201 1 1 1
C                 33.1625513894      38.0412743652       6.2336851667 1 1 1
C                 31.5491517192      41.9096049881       5.6130412291 1 1 1
Al                31.5757503612      31.5590689470       2.4210701362 0 0 0
Cl                32.3821666506      30.4283284950       0.7589432376 1 1 1
Cl                32.1755607597      33.6280533686       2.2133639843 1 1 1
Cl                32.3825532878      30.6992659070       4.2369178956 1 1 1
Cl                29.4192277525      31.6049010386       2.4580103208 1 1 1
