&CONTROL
    restart_mode = 'restart'
    calculation = 'relax'
    prefix = 'ns'
    pseudo_dir = '/home/tomas.rojas_s/pseudo/'
    outdir = '/scratch/global/tomas.rojas_s/ns/c1/out'
    nstep = 200
    etot_conv_thr = 1.0D-4
    forc_conv_thr = 1.0D-3
/
&SYSTEM
    ibrav = 0
    nat = 197
    ntyp = 3
    ecutwfc = 45.0
    ecutrho = 360.0
    occupations = 'smearing'
    smearing = 'mp'
    degauss = 0.02
    vdw_corr = 'dft-d3'
/
&ELECTRONS
    conv_thr = 1.0D-8
    mixing_mode = 'local-TF'
    mixing_beta = 0.7
/
&IONS
/
&CELL
/

ATOMIC_SPECIES
C 12.011 C.pbe-n-kjpaw_psl.1.0.0.UPF
Al 26.9815385 Al.pbe-n-kjpaw_psl.1.0.0.UPF
Cl 35.45 Cl.pbe-n-kjpaw_psl.1.0.0.UPF

K_POINTS automatic
1 1 3 0 0 0

CELL_PARAMETERS angstrom
50.00000000000000 0.00000000000000 0.00000000000000
0.00000000000000 50.00000000000000 0.00000000000000
0.00000000000000 0.00000000000000 7.40451720000000

ATOMIC_POSITIONS angstrom
C            30.5023176214       21.7934098044        1.0937613256
C            30.0891120867       25.7194402190        7.3930594588
C            27.2623496296       28.8702554579        0.0207449791
C            23.1941259595       29.9655667528        0.0182698834
C            19.1291017413       28.8029775102        0.0132444455
C            16.8535881424       25.3096359613        0.0129792571
C            17.5467392222       21.1534056758        0.0101707978
C            20.3757685816       17.9928302201        0.0117731050
C            24.3012391993       16.4036061327        0.0132270980
C            28.5354587241       16.6646543621        0.0098907356
C            32.2610344342       18.6665697766        0.0064853356
C            34.3157309058       22.3417682850        0.0068360056
C            33.9085733459       26.5693556285        0.0079583678
C            32.5900704453       30.6392657600        0.0092250779
C            30.9927225441       34.5983201176        0.0075795096
C            28.9598680878       38.3861428226        7.3974990403
C            30.7611748538       22.9141589459        0.1966675885
C            29.3484110050       26.9411797500        7.4040794735
C            25.9876151501       29.5019540669        0.0205884799
C            21.7745581805       29.8288289676        0.0158335414
C            18.0565832169       27.8628125774        0.0134546358
C            16.7834761533       23.8860876448        0.0119170567
C            18.3111617186       19.9488715968        0.0097715146
C            21.5946641650       17.2545780747        0.0137062731
C            25.7193382950       16.3024108790        0.0114853084
C            29.8809250010       17.1277393172        0.0090685942
C            33.1983158733       19.7384010591        0.0059314060
C            34.4191004477       23.7642579383        0.0070116595
C            33.4975612100       27.9359662092        0.0088522902
C            32.1019962510       31.9778399349        0.0071205366
C            30.3597723148       35.8758261192        0.0100616472
C            28.2180196867       39.6298004001        7.3629315723
C            30.9936208309       23.9164354393        1.2387989255
C            28.9362200310       27.5297124350        1.2398624821
C            25.3117658217       29.7098566609        1.2556496468
C            21.0778767621       29.6734701010        1.2485208388
C            17.6250702325       27.2937270012        1.2470534703
C            16.8660091681       23.1772295326        1.2462885472
C            18.7698857822       19.4019031013        1.2439448798
C            22.2447395038       16.9627754064        1.2483555592
C            26.4309622155       16.3215635997        1.2453060262
C            30.5261089523       17.4317295208        1.2426255135
C            33.5952582855       20.3314653428        1.2403062314
C            34.3754581179       24.4779458378        1.2416938151
C            33.2786761368       28.6145748642        1.2430030815
C            31.8430296597       32.6384517357        1.2409276182
C            30.0194327835       36.5200068578        1.2369752508
C            27.8135025490       40.2510005212        1.2356313268
C            30.5238333636       25.2295437963        1.2344699309
C            27.8686000315       28.4748968075        1.2478462532
C            23.9053685433       29.9396731363        1.2532363083
C            19.7463784125       29.1625971786        1.2476034296
C            17.0161470678       26.0044746006        1.2473222241
C            17.2538424963       21.8050968962        1.2448186344
C            19.8055999174       18.4218664702        1.2454503510
C            23.6017280287       16.5348321330        1.2477099962
C            27.8416841117       16.5044370938        1.2444818853
C            31.7275802046       18.1962518514        1.2415029245
C            34.1552326278       21.6445798502        1.2406053517
C            34.1017461532       25.8798181252        1.2416150456
C            32.8215060393       29.9659831680        1.2435220099
C            31.2885051913       33.9504907733        1.2390015196
C            29.3178594428       37.7710537437        1.2360718316
C            27.0526190123       41.3478920023        1.2374453954
C            30.8682837855       21.8959981947        2.4792283378
C            30.2475832376       25.8820124887        2.4825391534
C            27.2786962504       28.8709409355        2.4870307727
C            23.1917386080       29.9510809074        2.4856646557
C            19.1305145934       28.8011986820        2.4813687747
C            16.8438731339       25.3111238451        2.4809288528
C            17.5482423482       21.1543317986        2.4785048459
C            20.3728947179       17.9904367382        2.4799581908
C            24.3026582569       16.4034348858        2.4811931005
C            28.5354513364       16.6630714073        2.4781874852
C            32.2789566977       18.6513438343        2.4744218245
C            34.3291436555       22.3398198114        2.4738110892
C            33.9196173955       26.5718480580        2.4754341395
C            32.5858293087       30.6377370072        2.4767330988
C            30.9957790337       34.5998130714        2.4696112925
C            28.9728630983       38.3910276484        2.4783967189
C            31.2480310080       23.3085325668        2.4803603778
C            29.4234391583       27.0249539272        2.4839534895
C            25.9923113453       29.4815430451        2.4880769572
C            21.7745714716       29.8238381036        2.4833945466
C            18.0587282928       27.8607947991        2.4814026156
C            16.7756464700       23.8864681611        2.4799668407
C            18.3125812124       19.9499389490        2.4779219912
C            21.5966235611       17.2598041307        2.4818732944
C            25.7200330837       16.2952387052        2.4797841812
C            29.8813552916       17.1265401179        2.4762846943
C            33.2213698867       19.7214921551        2.4734730716
C            34.4390937524       23.7637435539        2.4748270925
C            33.5032779371       27.9371340656        2.4768979061
C            32.1000647619       31.9769049283        2.4750771170
C            30.3668423703       35.8796752777        2.4651936652
C            28.2268002791       39.6313169678        2.5103764185
C            30.9964796187       23.9176369178        3.7225013757
C            28.9351271145       27.5287598182        3.7299382566
C            25.3064391494       29.6899449768        3.7196186127
C            21.0772885351       29.6730785219        3.7177494440
C            17.6256137072       27.2926533133        3.7153819945
C            16.8626562802       23.1770883929        3.7136597211
C            18.7703931817       19.4025490852        3.7122178613
C            22.2448053317       16.9627854809        3.7159825260
C            26.4305470663       16.3174916464        3.7137030259
C            30.5242641027       17.4346236309        3.7099273952
C            33.5955287786       20.3313603686        3.7068470438
C            34.3725860489       24.4779541403        3.7084954169
C            33.2818186966       28.6170082764        3.7113779383
C            31.8513082090       32.6455810002        3.7082454871
C            30.0538015979       36.5037306935        3.6950472732
C            27.9145154297       40.1841838521        3.7487300009
C            30.5265824668       25.2306724690        3.7296316686
C            27.8656956145       28.4703450542        3.7258004987
C            23.9028773289       29.9224958455        3.7188880222
C            19.7458117224       29.1629223162        3.7161203859
C            17.0136609492       26.0045166963        3.7155336140
C            17.2523737505       21.8052592815        3.7126316529
C            19.8062358506       18.4226970797        3.7140614473
C            23.6021252655       16.5357759055        3.7152208344
C            27.8409199644       16.5031830689        3.7124797691
C            31.7257405759       18.1988111955        3.7078476732
C            34.1544425795       21.6441563047        3.7073625805
C            34.1021625163       25.8793345613        3.7093897316
C            32.8241158670       29.9672704760        3.7122370914
C            31.2987612834       33.9582528531        3.7048297468
C            29.3683171171       37.7465484296        3.6869523982
C            27.2206175175       41.3417316001        4.3015473008
C            30.4998544446       21.7971648899        3.8645912635
C            30.0914318871       25.7207804959        4.9766871622
C            27.2591131320       28.8631653837        4.9526652352
C            23.1927624108       29.9582353250        4.9521060852
C            19.1283933240       28.8035253672        4.9495962006
C            16.8498198654       25.3099131054        4.9494162963
C            17.5466979563       21.1540040072        4.9463926179
C            20.3763842881       17.9935583888        4.9481770753
C            24.3011551543       16.4035417068        4.9496784926
C            28.5347572662       16.6655010354        4.9459798120
C            32.2597898579       18.6680923055        4.9423109503
C            34.3142598967       22.3413191952        4.9414706413
C            33.9112529071       26.5699046532        4.9431902496
C            32.5929293283       30.6420656454        4.9451473545
C            31.0030289452       34.6042456196        4.9402403422
C            29.0317567596       38.3170958701        4.9377481764
C            30.7614815292       22.9152375270        4.7634370412
C            29.3496365958       26.9415749806        4.9688575157
C            25.9828001757       29.4872178268        4.9529493808
C            21.7739522232       29.8265829182        4.9514001952
C            18.0571842963       27.8620296516        4.9489945515
C            16.7797986288       23.8859393497        4.9484119283
C            18.3117895199       19.9499655027        4.9461413143
C            21.5947773426       17.2542425457        4.9499025495
C            25.7189548787       16.2988684918        4.9481727182
C            29.8792937314       17.1304184650        4.9439157057
C            33.1986351251       19.7382591064        4.9414658227
C            34.4163300700       23.7642784569        4.9423900440
C            33.5016454056       27.9381932262        4.9445874661
C            32.1085601328       31.9827357569        4.9428420116
C            30.3760632372       35.8805937959        4.9393756102
C            28.3283841181       39.4967399777        4.9364848362
C            30.6006155342       23.4685022099        6.1831763036
C            28.8673468639       27.4853831227        6.1868920396
C            25.3078699953       29.7114321406        6.1891213649
C            21.0776398822       29.6727072609        6.1853351582
C            17.6253249473       27.2939891441        6.1834488646
C            16.8672648223       23.1770773205        6.1823146444
C            18.7705405143       19.4029549380        6.1801023769
C            22.2413074364       16.9539672855        6.1846387005
C            26.4301069125       16.3245986508        6.1819761544
C            30.5209569731       17.4366328892        6.1781167852
C            33.5768082870       20.3423732532        6.1758143033
C            34.3525881351       24.4762372642        6.1771883859
C            33.2805092193       28.6166258589        6.1788214760
C            31.8491958135       32.6447817734        6.1770287815
C            30.0410830828       36.4973177917        6.1832460001
C            27.9071239383       40.1823170323        6.1235221162
C            30.3060350328       24.9305446838        6.1842700450
C            27.8371844523       28.4581507914        6.1881982541
C            23.9049363027       29.9444580086        6.1876412824
C            19.7452484642       29.1636578002        6.1842715699
C            17.0203964471       26.0031697727        6.1835600179
C            17.2523425470       21.8043112549        6.1811904677
C            19.8093208181       18.4261431762        6.1818625342
C            23.5999956443       16.5300286343        6.1838889691
C            27.8406496513       16.5073075116        6.1808874725
C            31.7162362746       18.2084733693        6.1770650537
C            34.1430530336       21.6491836637        6.1761058068
C            34.0886043376       25.8778676521        6.1772621458
C            32.8277736562       29.9686337829        6.1788564832
C            31.2936167669       33.9565137369        6.1766022184
C            29.3526228740       37.7383704900        6.1893180450
C            27.2205325406       41.3396089701        5.5598096979
Al           26.8983812816       33.6530067332        3.2181030300
Cl           27.6268881373       33.8540042560        1.1891431997
Cl           26.9259316650       35.5047441239        4.3059620879
Cl           28.1784454699       32.1975294688        4.2399737953
Cl           24.8662384443       32.9269774067        3.1350328987
