&CONTROL
    calculation = 'relax'
    restart_mode='restart',
    prefix='ns',
    nstep=200,
    pseudo_dir = '/home/leandro.ruiz/pseudo/',
    outdir='/home/leandro.ruiz/5',
    max_seconds=85500
/
&SYSTEM
   ntyp             = 3
   nat              = 196
   ibrav            = 0
   occupations='smearing', smearing='mp', degauss=0.02,
   vdw_corr='dft-d3'
/
&ELECTRONS
   mixing_mode = 'local-TF',
   mixing_beta = 0.7
/
&IONS
/
&CELL
/

ATOMIC_SPECIES
C 12.011 C.pbe-n-kjpaw_psl.1.0.0.UPF
Al 26.9815385 Al.pbe-n-kjpaw_psl.1.0.0.UPF
Cl 35.45 Cl.pbe-n-kjpaw_psl.1.0.0.UPF

K_POINTS automatic
1 1 5 0 0 0 

CELL_PARAMETERS angstrom
49.99999910754126 0.00000000000000 0.00000000000000
0.00000000000000 49.99999910754126 0.00000000000000
0.00000000000000 0.00000000000000 19.404499653645686

ATOMIC_POSITIONS angstrom
C       31.17215637      22.30449036      -0.00077107    
C       30.81713813      26.31951844      -0.00052660    
C       28.25930629      29.68149182      -0.00049337    
C       24.40655273      31.38785246       0.00109786    
C       20.41410104      30.11934420       0.00088620    
C       18.05677501      26.62369230      -0.00035257    
C       18.07917182      22.40385361      -0.00014623    
C       20.34474685      18.83058990      -0.00045320    
C       24.06579341      16.81232739      -0.00016239    
C       28.30625720      16.78572322       0.00102962    
C       32.13931955      18.60684868      -0.00017855    
C       34.57619542      22.05882755       0.00043402    
C       34.60658343      26.28231586       0.00233353    
C       32.66545867      30.06532392      -0.00019125    
C       29.59272235      33.01494416       0.00176962    
C       25.97921432      35.16242389       0.00039671    
C       31.64342447      23.68938507      -0.00081087    
C       30.10462568      27.53499265      -0.00003932    
C       27.10401682      30.51617428      -0.00010168    
C       22.98508728      31.30270795       0.00120698    
C       19.39324612      29.12611443       0.00062935    
C       17.78542949      25.22489131      -0.00014825    
C       18.61850313      21.08561422      -0.00084722    
C       21.46635354      17.95291139       0.00006324    
C       25.47173529      16.58189757      -0.00010438    
C       29.67050728      17.19654658       0.00094738    
C       33.16917264      19.59247859      -0.00042211    
C       34.87175918      23.45447465       0.00133167    
C       34.12587952      27.62340737      -0.00194679    
C       31.73964820      31.14695205      -0.00103397    
C       28.41164273      33.80483296       0.00152241    
C       24.75930478      35.79378248      -0.00023677    
C       31.76174069      24.51257077       1.19138695    
C       29.73449312      28.16223914       1.19598261    
C       26.47706160      30.90233795       1.17667902    
C       22.24483627      31.21299808       1.16297533    
C       18.87723267      28.60150031       1.16601003    
C       17.67659426      24.50309292       1.17281373    
C       18.90350370      20.40605533       1.17064115    
C       22.04739261      17.50229333       1.17152360    
C       26.19671262      16.44079719       1.16717850    
C       30.37862404      17.39594331       1.16924676    
C       33.69262771      20.11444183       1.16502404    
C       35.03273931      24.17443010       1.16556790    
C       33.89810337      28.30804574       1.17509442    
C       31.28739925      31.71703389       1.17921544    
C       27.81407385      34.21633133       1.20100678    
C       23.93386752      36.20486231       1.01903043    
C       31.25363317      25.77056924       1.19272681    
C       28.82730461      29.24170936       1.19238871    
C       25.13338080      31.35204490       1.17551346    
C       20.95493890      30.62242169       1.16497325    
C       18.21298787      27.34798548       1.16577369    
C       17.82554897      23.09269215       1.17243472    
C       19.76366703      19.27979210       1.17134753    
C       23.34208781      16.92876250       1.17102966    
C       27.61035256      16.54310416       1.16854502    
C       31.60591718      18.10467457       1.16970679    
C       34.41027650      21.34006258       1.16425077    
C       34.88965507      25.58660888       1.16256950    
C       33.17133370      29.52338805       1.17119118    
C       30.21407784      32.63799764       1.18380601    
C       26.58458731      34.90264797       1.21861940    
C       22.67889206      36.79322233       0.65009431    
C       31.33405178      22.58939285       1.32518308    
C       30.88336314      26.35967325       2.44907111    
C       28.28790200      29.75378295       2.42866640    
C       24.38268647      31.46579853       2.40255743    
C       20.32164088      30.21416173       2.39416349    
C       17.94959045      26.65382531       2.39968753    
C       17.99127867      22.36484764       2.40479410    
C       20.27181387      18.73111866       2.40403660    
C       24.04893661      16.67151302       2.40018141    
C       28.35361506      16.63308427       2.39905819    
C       32.21495578      18.53358181       2.40214545    
C       34.70941451      22.02953473       2.39459384    
C       34.74787674      26.31133675       2.39880266    
C       32.77743490      30.14791602       2.40774988    
C       29.64427148      33.10407687       2.42607022    
C       25.89570529      35.30144752       2.40436292    
C       31.73171966      23.63036752       2.27176228    
C       30.15804666      27.57099530       2.44418626    
C       27.13118748      30.57520575       2.42095392    
C       22.96300016      31.39789034       2.39900760    
C       19.30130500      29.22330625       2.39506623    
C       17.68965601      25.25571518       2.40215123    
C       18.51834120      21.04417608       2.40433848    
C       21.39043766      17.85373755       2.40406948    
C       25.44944026      16.42915705       2.39849491    
C       29.71165242      17.05410152       2.39975476    
C       33.23644824      19.52341419       2.39956196    
C       35.02358612      23.41985643       2.39340339    
C       34.26537098      27.64928882       2.40243415    
C       31.85231864      31.22563790       2.41136302    
C       28.45785559      33.87906600       2.43379206    
C       24.58098654      35.93523541       2.30696767    
C       31.47788560      24.17254075       3.55714407    
C       29.73761994      28.15170304       3.67813268    
C       26.47409680      30.93769621       3.64667173    
C       22.22848344      31.24667646       3.62578264    
C       18.83352826      28.64822744       3.62570993    
C       17.63747253      24.51872366       3.63329496    
C       18.86169679      20.38551191       3.63504711    
C       22.01053536      17.43341026       3.63155478    
C       26.19106116      16.34094712       3.62609669    
C       30.40397866      17.31649674       3.63034189    
C       33.72001056      20.09102262       3.62775109    
C       35.09153118      24.15415624       3.62480579    
C       33.99178317      28.33303832       3.63383852    
C       31.36474132      31.77546262       3.64576983    
C       27.82002129      34.30313706       3.65451357    
C       23.99547757      36.12415762       3.55754086    
C       31.09317826      25.59257356       3.62937746    
C       28.82098249      29.25530331       3.66837028    
C       25.10682804      31.38676929       3.63798061    
C       20.91246095      30.65806641       3.62511788    
C       18.16387414      27.37070213       3.62749921    
C       17.78522551      23.08303059       3.63357659    
C       19.73321180      19.23735337       3.63519440    
C       23.32747489      16.84277235       3.63014976    
C       27.63181742      16.44175893       3.62674560    
C       31.64136616      18.05907755       3.63184525    
C       34.45828918      21.33146208       3.62541656    
C       34.95161129      25.58892832       3.62578686    
C       33.25868939      29.57436959       3.63512648    
C       30.26597490      32.70387375       3.65146584    
C       26.54185958      34.98157901       3.65659954    
C       22.86202990      36.25751323       4.47688899    
C       31.57885346      22.80690363       5.92289499    
C       30.76449850      26.21713599       4.89800381    
C       28.28122861      29.78784036       4.90173382    
C       24.35761740      31.55422961       4.86547953    
C       20.25193658      30.28561924       4.85708668    
C       17.86457065      26.67863607       4.86155630    
C       17.90843189      22.33682796       4.86658496    
C       20.22607551      18.65813769       4.86665441    
C       24.03356555      16.55445055       4.85990275    
C       28.38587061      16.51238613       4.85859680    
C       32.27349638      18.47488526       4.86406378    
C       34.80440888      22.00435800       4.85620835    
C       34.84036148      26.33152870       4.86005541    
C       32.87967843      30.22205325       4.87046336    
C       29.69217648      33.20004256       4.88357820    
C       25.90231023      35.36806196       4.92416033    
C       31.53102202      23.48023290       4.77730597    
C       30.14287143      27.49533110       4.91043097    
C       27.15236452      30.64010353       4.89143927    
C       22.93920047      31.48959910       4.86130193    
C       19.22994851      29.29536540       4.85708208    
C       17.60886171      25.27899506       4.86387912    
C       18.43773027      21.01499856       4.86689726    
C       21.33921183      17.77412005       4.86553988    
C       25.43354725      16.30472375       4.85766203    
C       29.74023853      16.94665268       4.86081700    
C       33.29431693      19.46734060       4.86224449    
C       35.11086006      23.39412784       4.85474936    
C       34.37397452      27.67328737       4.86198864    
C       31.94809461      31.29090943       4.87570907    
C       28.50453811      33.97451820       4.88706610    
C       24.70302127      36.07467303       4.77109153    
C       31.27526785      24.17515049       6.14111098    
C       29.65316402      28.18842060       6.02780056    
C       26.39315041      31.06866610       5.98722707    
C       22.08780175      31.31426823       5.95818982    
C       18.68332211      28.62088134       5.95348512    
C       17.54457301      24.41361707       5.96107101    
C       18.84662049      20.24701457       5.96225604    
C       22.06527261      17.29129168       5.95978233    
C       26.30044897      16.21273867       5.95205803    
C       30.54034889      17.27832199       5.95866273    
C       33.86372475      20.12957858       5.95222920    
C       35.18230788      24.25603359       5.95279788    
C       34.05508730      28.47430940       5.96290828    
C       31.35532389      31.91506864       5.97855813    
C       27.79149791      34.44479973       5.99551026    
C       23.70030657      37.02795625       5.29148589    
C       30.98674785      25.40055927       6.00864431    
C       28.89236669      29.16849758       5.99588384    
C       25.21674643      31.46534351       5.96525279    
C       20.95490379      30.80451334       5.94917240    
C       18.11344990      27.51687067       5.95326786    
C       17.67087291      23.17753351       5.95929286    
C       19.60112311      19.26012763       5.96372546    
C       23.19697807      16.77956754       5.95873743    
C       27.53933462      16.30129634       5.95255906    
C       31.60512772      17.91832578       5.95930685    
C       34.50012005      21.19766541       5.95600277    
C       35.06283441      25.49292198       5.95668404    
C       33.42703061      29.54533112       5.96502446    
C       30.40698170      32.71630444       5.98481820    
C       26.70633526      35.04751061       6.01980471    
C       22.82889770      36.75367671      -0.63333784    
Cl      19.58555291      24.28297351       7.95929286    
Cl      15.75619291      24.28297351       7.95929286    
Cl      17.67087291      20.96665351       7.95929286    
Al      17.67087291      23.17753351       7.95929286    
